LAMMPS (4 Jul 2026)
OMP_NUM_THREADS environment is not set. Defaulting to 1 thread.
  using 1 OpenMP thread(s) per MPI task
Loaded 1 plugins from C:\Users\mitra\AppData\Local\LAMMPS 64-bit 4Jul2026\plugins
package omp 8
set 8 OpenMP thread(s) per MPI task
using multi-threaded neighbor list subroutines
# 400-Grain Polycrystalline Al Benchmark Simulation
units           metal
dimension       3
boundary        p p p
atom_style      atomic

read_data       ../data/polycrystal_400grains.data
Reading data file ...
  orthogonal box = (0 0 0) to (200 200 200)
  1 by 1 by 1 MPI processor grid
  reading atoms ...
  294111 atoms
  read_data CPU = 2.496 seconds

pair_style      eam/alloy
pair_coeff      * * ../data/Al_zhou.eam.alloy Al Al Al Al Al Al Al Al Al Al Al Al Al Al Al Al Al Al Al Al Al Al Al Al Al Al Al Al Al Al Al Al Al Al Al Al Al Al Al Al Al Al Al Al Al Al Al Al Al Al Al Al Al Al Al Al Al Al Al Al Al Al Al Al Al Al Al Al Al Al Al Al Al Al Al Al Al Al Al Al Al Al Al Al Al Al Al Al Al Al Al Al Al Al Al Al Al Al Al Al Al Al Al Al Al Al Al Al Al Al Al Al Al Al Al Al Al Al Al Al Al Al Al Al Al Al Al Al Al Al Al Al Al Al Al Al Al Al Al Al Al Al Al Al Al Al Al Al Al Al Al Al Al Al Al Al Al Al Al Al Al Al Al Al Al Al Al Al Al Al Al Al Al Al Al Al Al Al Al Al Al Al Al Al Al Al Al Al Al Al Al Al Al Al Al Al Al Al Al Al Al Al Al Al Al Al Al Al Al Al Al Al Al Al Al Al Al Al Al Al Al Al Al Al Al Al Al Al Al Al Al Al Al Al Al Al Al Al Al Al Al Al Al Al Al Al Al Al Al Al Al Al Al Al Al Al Al Al Al Al Al Al Al Al Al Al Al Al Al Al Al Al Al Al Al Al Al Al Al Al Al Al Al Al Al Al Al Al Al Al Al Al Al Al Al Al Al Al Al Al Al Al Al Al Al Al Al Al Al Al Al Al Al Al Al Al Al Al Al Al Al Al Al Al Al Al Al Al Al Al Al Al Al Al Al Al Al Al Al Al Al Al Al Al Al Al Al Al Al Al Al Al Al Al Al Al Al Al Al Al Al Al Al Al Al Al Al Al Al Al Al Al Al Al Al Al Al Al Al Al Al Al Al Al Al Al Al Al Al Al Al Al Al Al Al Al Al Al Al Al
Reading eam/alloy potential file ../data/Al_zhou.eam.alloy with DATE: 2007-10-12

neighbor        2.0 bin
neigh_modify    every 1 delay 5 check yes

# Stage 1: Energy Minimization
minimize        1.0e-15 1.0e-15 200 2000
Switching to 'neigh_modify every 1 delay 0 check yes' setting during minimization
Last active /omp style is pair_style eam/alloy/omp
Neighbor list info ...
  update: every = 1 steps, delay = 0 steps, check = yes
  max neighbors/atom: 2000, page size: 100000
  master list distance cutoff = 12.1025
  ghost atom cutoff = 12.1025
  binsize = 6.05125, bins = 34 34 34
  1 neighbor lists, perpetual/occasional/extra = 1 0 0
  (1) pair eam/alloy/omp, perpetual
      attributes: half, newton on, omp
      pair build: half/bin/atomonly/newton/omp
      stencil: half/bin/3d
      bin: standard
Per MPI rank memory allocation (min/avg/max) = 368 | 368 | 368 Mbytes
   Step          Temp          E_pair         E_mol          TotEng         Press     
         0   0             -986260.29      0             -986260.29     -7880.4076    
       200   0             -1010720.3      0             -1010720.3     -10032.36     
Loop time of 450.356 on 8 procs for 200 steps with 294111 atoms

180.3% CPU use with 1 MPI tasks x 8 OpenMP threads

Minimization stats:
  Stopping criterion = max iterations
  Energy initial, next-to-last, final = 
     -986260.293685027  -1010704.31791447  -1010720.29806987
  Force two-norm initial, final = 1266.2958 8.536291
  Force max component initial, final = 208.9707 0.73810805
  Final line search alpha, max atom move = 0.21858064 0.16133613
  Iterations, force evaluations = 200 200

MPI task timing breakdown:
Section |  min time  |  avg time  |  max time  |%varavg| %total
---------------------------------------------------------------
Pair    | 422.02     | 422.02     | 422.02     |   0.0 | 93.71
Neigh   | 15.975     | 15.975     | 15.975     |   0.0 |  3.55
Comm    | 1.2273     | 1.2273     | 1.2273     |   0.0 |  0.27
Output  | 0.00333    | 0.00333    | 0.00333    |   0.0 |  0.00
Modify  | 2.0986     | 2.0986     | 2.0986     |   0.0 |  0.47
Other   |            | 9.036      |            |       |  2.01

Nlocal:         294111 ave      294111 max      294111 min
Histogram: 1 0 0 0 0 0 0 0 0 0
Nghost:          93542 ave       93542 max       93542 min
Histogram: 1 0 0 0 0 0 0 0 0 0
Neighs:    4.86472e+07 ave 4.86472e+07 max 4.86472e+07 min
Histogram: 1 0 0 0 0 0 0 0 0 0

Total # of neighbors = 48647153
Ave neighs/atom = 165.40406
Neighbor list builds = 15
Dangerous builds = 0

# Stage 2: NPT Thermal Equilibration
reset_timestep  0
timestep        0.001
velocity        all create 300.0 401 mom yes rot yes dist gaussian
fix             npt_eq all npt temp 300.0 300.0 0.1 iso 0.0 0.0 1.0
run             200
Last active /omp style is pair_style eam/alloy/omp
Per MPI rank memory allocation (min/avg/max) = 347.4 | 347.4 | 347.4 Mbytes
   Step          Temp          E_pair         E_mol          TotEng         Press          Volume    
         0   300           -1010720.3      0             -999315.29     -8509.6238      8000000      
       200   186.9172      -1005862.4      0             -998756.43     -3214.1596      7813717.8    
Loop time of 335.614 on 8 procs for 200 steps with 294111 atoms

Performance: 0.051 ns/day, 466.130 hours/ns, 0.596 timesteps/s, 175.268 katom-step/s
209.0% CPU use with 1 MPI tasks x 8 OpenMP threads

MPI task timing breakdown:
Section |  min time  |  avg time  |  max time  |%varavg| %total
---------------------------------------------------------------
Pair    | 322.43     | 322.43     | 322.43     |   0.0 | 96.07
Neigh   | 4.3367     | 4.3367     | 4.3367     |   0.0 |  1.29
Comm    | 0.54507    | 0.54507    | 0.54507    |   0.0 |  0.16
Output  | 0.002242   | 0.002242   | 0.002242   |   0.0 |  0.00
Modify  | 7.8872     | 7.8872     | 7.8872     |   0.0 |  2.35
Other   |            | 0.4097     |            |       |  0.12

Nlocal:         294111 ave      294111 max      294111 min
Histogram: 1 0 0 0 0 0 0 0 0 0
Nghost:          94304 ave       94304 max       94304 min
Histogram: 1 0 0 0 0 0 0 0 0 0
Neighs:    4.94657e+07 ave 4.94657e+07 max 4.94657e+07 min
Histogram: 1 0 0 0 0 0 0 0 0 0

Total # of neighbors = 49465664
Ave neighs/atom = 168.18706
Neighbor list builds = 4
Dangerous builds = 0
Total wall time: 0:13:17
