LAMMPS (4 Jul 2026)
OMP_NUM_THREADS environment is not set. Defaulting to 1 thread.
  using 1 OpenMP thread(s) per MPI task
Loaded 1 plugins from C:\Users\mitra\AppData\Local\LAMMPS 64-bit 4Jul2026\plugins
package omp 8
set 8 OpenMP thread(s) per MPI task
using multi-threaded neighbor list subroutines
# 500-Grain Polycrystalline Al Benchmark Simulation
units           metal
dimension       3
boundary        p p p
atom_style      atomic

read_data       ../data/polycrystal_500grains.data
Reading data file ...
  orthogonal box = (0 0 0) to (220 220 220)
  1 by 1 by 1 MPI processor grid
  reading atoms ...
  385879 atoms
  read_data CPU = 2.895 seconds

pair_style      eam/alloy
pair_coeff      * * ../data/Al_zhou.eam.alloy Al Al Al Al Al Al Al Al Al Al Al Al Al Al Al Al Al Al Al Al Al Al Al Al Al Al Al Al Al Al Al Al Al Al Al Al Al Al Al Al Al Al Al Al Al Al Al Al Al Al Al Al Al Al Al Al Al Al Al Al Al Al Al Al Al Al Al Al Al Al Al Al Al Al Al Al Al Al Al Al Al Al Al Al Al Al Al Al Al Al Al Al Al Al Al Al Al Al Al Al Al Al Al Al Al Al Al Al Al Al Al Al Al Al Al Al Al Al Al Al Al Al Al Al Al Al Al Al Al Al Al Al Al Al Al Al Al Al Al Al Al Al Al Al Al Al Al Al Al Al Al Al Al Al Al Al Al Al Al Al Al Al Al Al Al Al Al Al Al Al Al Al Al Al Al Al Al Al Al Al Al Al Al Al Al Al Al Al Al Al Al Al Al Al Al Al Al Al Al Al Al Al Al Al Al Al Al Al Al Al Al Al Al Al Al Al Al Al Al Al Al Al Al Al Al Al Al Al Al Al Al Al Al Al Al Al Al Al Al Al Al Al Al Al Al Al Al Al Al Al Al Al Al Al Al Al Al Al Al Al Al Al Al Al Al Al Al Al Al Al Al Al Al Al Al Al Al Al Al Al Al Al Al Al Al Al Al Al Al Al Al Al Al Al Al Al Al Al Al Al Al Al Al Al Al Al Al Al Al Al Al Al Al Al Al Al Al Al Al Al Al Al Al Al Al Al Al Al Al Al Al Al Al Al Al Al Al Al Al Al Al Al Al Al Al Al Al Al Al Al Al Al Al Al Al Al Al Al Al Al Al Al Al Al Al Al Al Al Al Al Al Al Al Al Al Al Al Al Al Al Al Al Al Al Al Al Al Al Al Al Al Al Al Al Al Al Al Al Al Al Al Al Al Al Al Al Al Al Al Al Al Al Al Al Al Al Al Al Al Al Al Al Al Al Al Al Al Al Al Al Al Al Al Al Al Al Al Al Al Al Al Al Al Al Al Al Al Al Al Al Al Al Al Al Al Al Al Al Al Al Al Al Al Al Al Al Al Al Al Al Al Al Al Al Al Al Al Al Al Al Al Al Al Al Al Al Al Al Al Al Al Al Al Al Al Al Al Al Al Al
Reading eam/alloy potential file ../data/Al_zhou.eam.alloy with DATE: 2007-10-12

neighbor        2.0 bin
neigh_modify    every 1 delay 5 check yes

# Stage 1: Energy Minimization
minimize        1.0e-15 1.0e-15 200 2000
Switching to 'neigh_modify every 1 delay 0 check yes' setting during minimization
Last active /omp style is pair_style eam/alloy/omp
Neighbor list info ...
  update: every = 1 steps, delay = 0 steps, check = yes
  max neighbors/atom: 2000, page size: 100000
  master list distance cutoff = 12.1025
  ghost atom cutoff = 12.1025
  binsize = 6.05125, bins = 37 37 37
  1 neighbor lists, perpetual/occasional/extra = 1 0 0
  (1) pair eam/alloy/omp, perpetual
      attributes: half, newton on, omp
      pair build: half/bin/atomonly/newton/omp
      stencil: half/bin/3d
      bin: standard
WARNING: A per-atom density exceeded rhomax of EAM potential table - a linear extrapolation to the energy was made (src/OPENMP/pair_eam_omp.cpp:101)
Per MPI rank memory allocation (min/avg/max) = 477.8 | 477.8 | 477.8 Mbytes
   Step          Temp          E_pair         E_mol          TotEng         Press     
         0   0             -1294303.9      0             -1294303.9     -7960.0274    
       200   0             -1324780.3      0             -1324780.3     -10641.642    
Loop time of 398.885 on 8 procs for 200 steps with 385879 atoms

240.8% CPU use with 1 MPI tasks x 8 OpenMP threads

Minimization stats:
  Stopping criterion = max iterations
  Energy initial, next-to-last, final = 
     -1294303.87120633   -1324758.9510714  -1324780.27598021
  Force two-norm initial, final = 1369.3774 11.411791
  Force max component initial, final = 252.34259 0.74380379
  Final line search alpha, max atom move = 0.16140325 0.12005235
  Iterations, force evaluations = 200 200

MPI task timing breakdown:
Section |  min time  |  avg time  |  max time  |%varavg| %total
---------------------------------------------------------------
Pair    | 371.47     | 371.47     | 371.47     |   0.0 | 93.13
Neigh   | 16.342     | 16.342     | 16.342     |   0.0 |  4.10
Comm    | 0.82878    | 0.82878    | 0.82878    |   0.0 |  0.21
Output  | 0.051448   | 0.051448   | 0.051448   |   0.0 |  0.01
Modify  | 1.9724     | 1.9724     | 1.9724     |   0.0 |  0.49
Other   |            | 8.219      |            |       |  2.06

Nlocal:         385879 ave      385879 max      385879 min
Histogram: 1 0 0 0 0 0 0 0 0 0
Nghost:         108009 ave      108009 max      108009 min
Histogram: 1 0 0 0 0 0 0 0 0 0
Neighs:    6.35858e+07 ave 6.35858e+07 max 6.35858e+07 min
Histogram: 1 0 0 0 0 0 0 0 0 0

Total # of neighbors = 63585759
Ave neighs/atom = 164.7816
Neighbor list builds = 13
Dangerous builds = 0

# Stage 2: NPT Thermal Equilibration
reset_timestep  0
timestep        0.001
velocity        all create 300.0 501 mom yes rot yes dist gaussian
fix             npt_eq all npt temp 300.0 300.0 0.1 iso 0.0 0.0 1.0
run             200
Last active /omp style is pair_style eam/alloy/omp
Per MPI rank memory allocation (min/avg/max) = 451.4 | 451.4 | 451.4 Mbytes
   Step          Temp          E_pair         E_mol          TotEng         Press          Volume    
         0   300           -1324780.3      0             -1309816.7     -9140.6205      10648000     
       200   189.44116     -1318706.6      0             -1309257.5     -3701.1127      10395681     
Loop time of 591.009 on 8 procs for 200 steps with 385879 atoms

Performance: 0.029 ns/day, 820.845 hours/ns, 0.338 timesteps/s, 130.583 katom-step/s
160.7% CPU use with 1 MPI tasks x 8 OpenMP threads

MPI task timing breakdown:
Section |  min time  |  avg time  |  max time  |%varavg| %total
---------------------------------------------------------------
Pair    | 568.87     | 568.87     | 568.87     |   0.0 | 96.25
Neigh   | 6.8092     | 6.8092     | 6.8092     |   0.0 |  1.15
Comm    | 0.99734    | 0.99734    | 0.99734    |   0.0 |  0.17
Output  | 0.002722   | 0.002722   | 0.002722   |   0.0 |  0.00
Modify  | 13.57      | 13.57      | 13.57      |   0.0 |  2.30
Other   |            | 0.7637     |            |       |  0.13

Nlocal:         385879 ave      385879 max      385879 min
Histogram: 1 0 0 0 0 0 0 0 0 0
Nghost:         108844 ave      108844 max      108844 min
Histogram: 1 0 0 0 0 0 0 0 0 0
Neighs:     6.4631e+07 ave  6.4631e+07 max  6.4631e+07 min
Histogram: 1 0 0 0 0 0 0 0 0 0

Total # of neighbors = 64631020
Ave neighs/atom = 167.49038
Neighbor list builds = 4
Dangerous builds = 0
Total wall time: 0:16:48
