LAMMPS (4 Jul 2026)
OMP_NUM_THREADS environment is not set. Defaulting to 1 thread.
  using 1 OpenMP thread(s) per MPI task
Loaded 1 plugins from C:\Users\mitra\AppData\Local\LAMMPS 64-bit 4Jul2026\plugins
package omp 8
set 8 OpenMP thread(s) per MPI task
using multi-threaded neighbor list subroutines
# 300-Grain Polycrystalline Al Benchmark Simulation
units           metal
dimension       3
boundary        p p p
atom_style      atomic

read_data       ../data/polycrystal_300grains.data
Reading data file ...
  orthogonal box = (0 0 0) to (180 180 180)
  1 by 1 by 1 MPI processor grid
  reading atoms ...
  205340 atoms
  read_data CPU = 1.332 seconds

pair_style      eam/alloy
pair_coeff      * * ../data/Al_zhou.eam.alloy Al Al Al Al Al Al Al Al Al Al Al Al Al Al Al Al Al Al Al Al Al Al Al Al Al Al Al Al Al Al Al Al Al Al Al Al Al Al Al Al Al Al Al Al Al Al Al Al Al Al Al Al Al Al Al Al Al Al Al Al Al Al Al Al Al Al Al Al Al Al Al Al Al Al Al Al Al Al Al Al Al Al Al Al Al Al Al Al Al Al Al Al Al Al Al Al Al Al Al Al Al Al Al Al Al Al Al Al Al Al Al Al Al Al Al Al Al Al Al Al Al Al Al Al Al Al Al Al Al Al Al Al Al Al Al Al Al Al Al Al Al Al Al Al Al Al Al Al Al Al Al Al Al Al Al Al Al Al Al Al Al Al Al Al Al Al Al Al Al Al Al Al Al Al Al Al Al Al Al Al Al Al Al Al Al Al Al Al Al Al Al Al Al Al Al Al Al Al Al Al Al Al Al Al Al Al Al Al Al Al Al Al Al Al Al Al Al Al Al Al Al Al Al Al Al Al Al Al Al Al Al Al Al Al Al Al Al Al Al Al Al Al Al Al Al Al Al Al Al Al Al Al Al Al Al Al Al Al Al Al Al Al Al Al Al Al Al Al Al Al Al Al Al Al Al Al Al Al Al Al Al Al Al Al Al Al Al Al Al Al Al Al Al Al Al Al Al Al Al Al
Reading eam/alloy potential file ../data/Al_zhou.eam.alloy with DATE: 2007-10-12

neighbor        2.0 bin
neigh_modify    every 1 delay 5 check yes

# Stage 1: Energy Minimization
minimize        1.0e-15 1.0e-15 200 2000
Switching to 'neigh_modify every 1 delay 0 check yes' setting during minimization
Last active /omp style is pair_style eam/alloy/omp
Neighbor list info ...
  update: every = 1 steps, delay = 0 steps, check = yes
  max neighbors/atom: 2000, page size: 100000
  master list distance cutoff = 12.1025
  ghost atom cutoff = 12.1025
  binsize = 6.05125, bins = 30 30 30
  1 neighbor lists, perpetual/occasional/extra = 1 0 0
  (1) pair eam/alloy/omp, perpetual
      attributes: half, newton on, omp
      pair build: half/bin/atomonly/newton/omp
      stencil: half/bin/3d
      bin: standard
Per MPI rank memory allocation (min/avg/max) = 265.1 | 265.1 | 265.1 Mbytes
   Step          Temp          E_pair         E_mol          TotEng         Press     
         0   0             -686055.54      0             -686055.54     -8043.127     
       200   0             -704257.41      0             -704257.41     -9262.7148    
Loop time of 157.91 on 8 procs for 200 steps with 205340 atoms

350.1% CPU use with 1 MPI tasks x 8 OpenMP threads

Minimization stats:
  Stopping criterion = max iterations
  Energy initial, next-to-last, final = 
     -686055.537458232  -704236.767916331  -704257.405879745
  Force two-norm initial, final = 1124.0582 7.7101643
  Force max component initial, final = 229.70715 0.9676646
  Final line search alpha, max atom move = 0.36058564 0.34892595
  Iterations, force evaluations = 200 200

MPI task timing breakdown:
Section |  min time  |  avg time  |  max time  |%varavg| %total
---------------------------------------------------------------
Pair    | 146.98     | 146.98     | 146.98     |   0.0 | 93.08
Neigh   | 7.286      | 7.286      | 7.286      |   0.0 |  4.61
Comm    | 0.35579    | 0.35579    | 0.35579    |   0.0 |  0.23
Output  | 0.001666   | 0.001666   | 0.001666   |   0.0 |  0.00
Modify  | 0.69776    | 0.69776    | 0.69776    |   0.0 |  0.44
Other   |            | 2.59       |            |       |  1.64

Nlocal:         205340 ave      205340 max      205340 min
Histogram: 1 0 0 0 0 0 0 0 0 0
Nghost:          76441 ave       76441 max       76441 min
Histogram: 1 0 0 0 0 0 0 0 0 0
Neighs:    3.34975e+07 ave 3.34975e+07 max 3.34975e+07 min
Histogram: 1 0 0 0 0 0 0 0 0 0

Total # of neighbors = 33497471
Ave neighs/atom = 163.13174
Neighbor list builds = 15
Dangerous builds = 0

# Stage 2: NPT Thermal Equilibration
reset_timestep  0
timestep        0.001
velocity        all create 300.0 301 mom yes rot yes dist gaussian
fix             npt_eq all npt temp 300.0 300.0 0.1 iso 0.0 0.0 1.0
run             200
Last active /omp style is pair_style eam/alloy/omp
Per MPI rank memory allocation (min/avg/max) = 249.4 | 249.4 | 249.4 Mbytes
   Step          Temp          E_pair         E_mol          TotEng         Press          Volume    
         0   300           -704257.41      0             -696294.76     -7804.3743      5832000      
       200   190.54808     -700896.03      0             -695838.47     -2849.559       5689337.6    
Loop time of 130.224 on 8 procs for 200 steps with 205340 atoms

Performance: 0.133 ns/day, 180.866 hours/ns, 1.536 timesteps/s, 315.365 katom-step/s
324.5% CPU use with 1 MPI tasks x 8 OpenMP threads

MPI task timing breakdown:
Section |  min time  |  avg time  |  max time  |%varavg| %total
---------------------------------------------------------------
Pair    | 126.4      | 126.4      | 126.4      |   0.0 | 97.07
Neigh   | 1.3536     | 1.3536     | 1.3536     |   0.0 |  1.04
Comm    | 0.25965    | 0.25965    | 0.25965    |   0.0 |  0.20
Output  | 0.001036   | 0.001036   | 0.001036   |   0.0 |  0.00
Modify  | 2.0263     | 2.0263     | 2.0263     |   0.0 |  1.56
Other   |            | 0.1792     |            |       |  0.14

Nlocal:         205340 ave      205340 max      205340 min
Histogram: 1 0 0 0 0 0 0 0 0 0
Nghost:          77215 ave       77215 max       77215 min
Histogram: 1 0 0 0 0 0 0 0 0 0
Neighs:    3.40955e+07 ave 3.40955e+07 max 3.40955e+07 min
Histogram: 1 0 0 0 0 0 0 0 0 0

Total # of neighbors = 34095499
Ave neighs/atom = 166.04412
Neighbor list builds = 4
Dangerous builds = 0
Total wall time: 0:04:50
