LAMMPS (4 Jul 2026)
OMP_NUM_THREADS environment is not set. Defaulting to 1 thread.
  using 1 OpenMP thread(s) per MPI task
package omp 8
set 8 OpenMP thread(s) per MPI task
using multi-threaded neighbor list subroutines
# Phase 4: Uniaxial Tensile Loading on Polycrystalline Al
# Restart from Phase 3: simulations/equilibrated_polycrystal.restart

units           metal
dimension       3
boundary        p p p
atom_style      atomic

# Read equilibrated restart file
read_restart    equilibrated_polycrystal.restart
Reading restart file ...
  restart file = 4 Jul 2026, LAMMPS = 4 Jul 2026
  restoring atom style atomic from restart
  orthogonal box = (4.0305372 4.0305372 4.0305372) to (75.969463 75.969463 75.969463)
  1 by 1 by 1 MPI processor grid
  pair style eam/alloy stores no restart info
  17682 atoms
  read_restart CPU = 0.005 seconds

# Pair potential for 12 grain atom types
pair_style      eam/alloy
pair_coeff      * * ../data/Al_zhou.eam.alloy Al Al Al Al Al Al Al Al Al Al Al Al
Reading eam/alloy potential file ../data/Al_zhou.eam.alloy with DATE: 2007-10-12

# Neighbor list settings
neighbor        2.0 bin
neigh_modify    every 1 delay 5 check yes

# Timestep: 1 fs
timestep        0.001

# Calculate box strain & virial stress
variable        tmp equal "lx"
variable        L0 equal ${tmp}
variable        L0 equal 71.9389256539439
variable        strain equal "(lx - v_L0) / v_L0"
variable        stress_x equal "-pxx / 10000.0"  # bar to GPa conversion
variable        stress_y equal "-pyy / 10000.0"
variable        stress_z equal "-pzz / 10000.0"

thermo          200
thermo_style    custom step v_strain v_stress_x v_stress_y v_stress_z temp pe press vol lx ly lz

# Dump trajectory snapshots every 1000 steps
dump            tensile_dump all custom 1000 tensile.lammpstrj id type x y z

# Apply uniaxial tensile strain along X axis (erate = 0.01 1/ps = 1e10 1/s -> 20% strain over 20 ps)
# Transverse dimensions Y and Z are relaxed to 0 bar (zero lateral stress state)
fix             deform_x all deform 1 x erate 0.01 remap x
fix             npt_transverse all npt temp 300.0 300.0 0.1 y 0.0 0.0 1.0 z 0.0 0.0 1.0

# Print status header
echo            both
print           "=== STAGE 4: Uniaxial Tensile Deformation (20,000 steps -> 20% Strain) ==="
=== STAGE 4: Uniaxial Tensile Deformation (20,000 steps -> 20% Strain) ===
run             20000
Unused restart file global fix info:
  fix style: npt, fix ID: npt_eq
Last active /omp style is pair_style eam/alloy/omp
Neighbor list info ...
  update: every = 1 steps, delay = 5 steps, check = yes
  max neighbors/atom: 2000, page size: 100000
  master list distance cutoff = 12.1025
  ghost atom cutoff = 12.1025
  binsize = 6.05125, bins = 12 12 12
  1 neighbor lists, perpetual/occasional/extra = 1 0 0
  (1) pair eam/alloy/omp, perpetual
      attributes: half, newton on, omp
      pair build: half/bin/atomonly/newton/omp
      stencil: half/bin/3d
      bin: standard
Per MPI rank memory allocation (min/avg/max) = 35.18 | 35.18 | 35.18 Mbytes
   Step        v_strain      v_stress_x     v_stress_y     v_stress_z        Temp          PotEng         Press          Volume           Lx             Ly             Lz      
      5000  -3.9508109e-16 -0.010902479   -0.055386855    0.099309203    301.30198     -61273.229     -110.06623      372298.98      71.938926      71.938926      71.938926    
      5200   0.002          0.045440025   -0.027967897   -0.05375807     300.16304     -61285.81       120.95314      369978.34      72.082804      71.930798      71.355877    
      5400   0.004          0.14561182    -0.0045143353  -0.031361217    303.59801     -61306.125     -365.78756      368053.93      72.226681      71.762942      71.009027    
      5600   0.006          0.20636563     0.015322433    0.042636236    301.8415      -61318.741     -881.08098      366325.67      72.370559      71.551221      70.743797    
      5800   0.008          0.21794904     0.0073247469   0.025757522    301.50828     -61334.914     -836.77105      364371.05      72.514437      71.413383      70.362259    
      6000   0.01           0.21474307     0.0069666937  -0.016290585    298.91        -61346.22      -684.73061      362696.98      72.658315      71.235531      70.074814    
      6200   0.012          0.24629683     0.017490557    0.0052720899   300.4665      -61361.837     -896.86493      361576         72.802193      71.046733      69.905448    
      6400   0.014          0.23822868     0.027963041    0.0081550078   302.18969     -61375.071     -914.4891       360277.15      72.946071      70.877856      69.682582    
      6600   0.016          0.30434607     0.041372578    0.045944579    303.65849     -61387.857     -1305.5441      359478.87      73.089948      70.709879      69.556163    
      6800   0.018          0.24563454     0.0033073904   0.0066252839   300.98307     -61394.508     -851.8907       358391.83      73.233826      70.529         69.387085    
      7000   0.02           0.28555587     0.0052707402  -0.015582386    300.21294     -61400.577     -917.48076      357520.94      73.377704      70.375429      69.233504    
      7200   0.022          0.30065682    -0.029352021    0.019354968    302.55298     -61415.579     -968.8659       356601.24      73.521582      70.16968       69.122353    
      7400   0.024          0.32152482     0.009191689    0.0026634785   302.43575     -61423.264     -1111.2666      355835.26      73.66546       70.095961      68.91156     
      7600   0.026          0.34782939     0.040089405    0.02639328     299.87401     -61429.617     -1381.0403      355113.99      73.809338      69.975403      68.756073    
      7800   0.028          0.37179232     0.043221517    0.029803551    301.81184     -61439.694     -1482.7246      354378.27      73.953216      69.873789      68.579723    
      8000   0.03           0.32665855     0.032153362   -0.017087993    300.15894     -61451.38      -1139.0797      353633.58      74.097093      69.789432      68.385286    
      8200   0.032          0.33758597    -0.00036807831  0.018574965    302.14614     -61454.261     -1185.9762      353194.09      74.240971      69.616214      68.337546    
      8400   0.034          0.36704634     0.0011795319   0.019377935    300.87181     -61460.994     -1292.0127      352587.23      74.384849      69.479106      68.222537    
      8600   0.036          0.375809       0.052411961    0.052056292    302.37519     -61472.934     -1600.9242      352101.76      74.528727      69.391148      68.083272    
      8800   0.038          0.35615439     0.012161949    0.0082269499   301.00049     -61477.767     -1255.1443      351363.32      74.672605      69.257583      67.940351    
      9000   0.04           0.339627      -0.040794288   -0.053063048    303.33522     -61477.7       -819.2322       350506.53      74.816483      69.112793      67.786059    
      9200   0.042          0.39520953     0.014535855    0.0045136202   299.07374     -61481.293     -1380.8634      350261.93      74.960361      68.993958      67.725187    
      9400   0.044          0.4177163      0.031169679    0.041064086    298.10998     -61492.567     -1633.1669      349705.37      75.104238      68.83718       67.641743    
      9600   0.046          0.408359       0.02417603     0.047488327    299.95607     -61502.636     -1600.0779      349031.24      75.248116      68.701702      67.51514     
      9800   0.048          0.40961209    -0.0033683573  -0.016508144    299.8525      -61510.094     -1299.1186      348152         75.391994      68.584631      67.331278    
     10000   0.05           0.40948758     0.0010591374  -0.0070439143   299.21093     -61512.155     -1345.0093      347730.47      75.535872      68.460505      67.243359    
     10200   0.052          0.37492587    -0.0038863928  -0.00048663471  304.07705     -61511.569     -1235.1761      347147.66      75.67975       68.319643      67.14118     
     10400   0.054          0.41695142     0.016016143    0.034683203    301.43205     -61523.392     -1558.8359      346740.06      75.823628      68.19991       67.052605    
     10600   0.056          0.42654737     0.031322636    0.015918986    296.45744     -61520.573     -1579.2966      346352.96      75.967505      68.101611      66.94739     
     10800   0.058          0.40902602    -0.0071153954   0.030952022    299.61894     -61539.214     -1442.8755      345514.06      76.111383      67.925876      66.831446    
     11000   0.06           0.41080577    -0.014701062   -0.0092764146   298.90477     -61541.888     -1289.4276      345003.75      76.255261      67.820675      66.710146    
     11200   0.062          0.43568744    -0.00014363307  0.0002622068   299.47378     -61552.573     -1452.6867      344481.61      76.399139      67.660672      66.640963    
     11400   0.064          0.42160653    -0.0054864621   0.0024170392   301.18894     -61563.142     -1395.1237      343858.73      76.543017      67.511277      66.542354    
     11600   0.066          0.41537973    -0.012059763   -0.012756233    300.05214     -61559.383     -1301.8791      343499.39      76.686895      67.443665      66.414614    
     11800   0.068          0.43754407    -0.022850864   -0.03040819     297.51249     -61561.878     -1280.9501      342974.12      76.830773      67.338057      66.292678    
     12000   0.07           0.4434927     -0.025060919   -0.042219006    297.91015     -61578.999     -1254.0426      342348.89      76.97465       67.182488      66.201087    
     12200   0.072          0.45228503    -0.013912013    0.0093025494   301.44971     -61572.611     -1492.2519      342194.7       77.118528      67.046491      66.181789    
     12400   0.074          0.53592916     0.017579938    0.0126347      301.39621     -61579.598     -1887.146       341955.16      77.262406      66.98865       66.0693      
     12600   0.076          0.53054987     0.03966961     0.0041636426   297.77962     -61571.105     -1914.6104      341542.17      77.406284      66.887979      65.965983    
     12800   0.078          0.51986977     0.028133075    0.034645433    303.54134     -61592.74      -1942.1609      340969.29      77.550162      66.699483      65.91892     
     13000   0.08           0.494071      -0.0085388752  -0.017989594    301.8473      -61596.418     -1558.4751      340377.45      77.69404       66.511134      65.868643    
     13200   0.082          0.48761759    -0.034320968   -0.030645531    299.92036     -61601.908     -1408.837       339956.07      77.837918      66.318933      65.855804    
     13400   0.084          0.50679088    -0.020361303    0.0062472186   300.48495     -61605.167     -1642.256       339708.15      77.981795      66.20931       65.795118    
     13600   0.086          0.54078715     0.014894243    0.017205549    300.4461      -61619.578     -1909.6231      339314.33      78.125673      66.132994      65.673512    
     13800   0.088          0.47670037    -0.0043810808  -0.0053287435   299.978       -61620.184     -1556.6352      338864.2       78.269551      65.993129      65.604575    
     14000   0.09           0.48564987    -0.0045704396  -0.042936164    299.89866     -61629.219     -1460.4776      338227.18      78.413429      65.837445      65.515655    
     14200   0.092          0.5097717      0.0081384148   0.035761078    297.63595     -61635.266     -1845.5706      338071.72      78.557307      65.683754      65.518552    
     14400   0.094          0.51880907     0.048721876    0.015109688    303.8678      -61634.264     -1942.1354      337670.2       78.701185      65.615351      65.389198    
     14600   0.096          0.53915591     0.015260058    0.026411772    303.7408      -61640.284     -1936.0925      337390.73      78.845063      65.435678      65.394924    
     14800   0.098          0.50143558    -0.030353867    0.0033029166   299.40617     -61643.595     -1581.2821      336663.73      78.98894       65.240877      65.329638    
     15000   0.1            0.44986738    -0.010791609   -0.035436591    299.2716      -61648.052     -1345.4639      336047.93      79.132818      65.157431      65.17494     
     15200   0.102          0.48130273    -0.011749004   -0.009875248    296.84465     -61655.856     -1532.2616      335703.71      79.276696      65.016825      65.130564    
     15400   0.104          0.49988833    -0.003543508    0.012733013    300.21909     -61656.183     -1696.9261      335384.78      79.420574      64.838082      65.129863    
     15600   0.106          0.49318495    -0.022882484   -0.0044182283   302.10777     -61654.993     -1552.9475      334882.42      79.564452      64.703585      65.049644    
     15800   0.108          0.49295679     0.018837069   -0.017794964    301.528       -61670.21      -1646.663       334468.01      79.70833       64.638337      64.917339    
     16000   0.11           0.48039053     0.0014265986  -0.004962434    298.45074     -61668.527     -1589.5156      334051.12      79.852207      64.446505      64.912246    
     16200   0.112          0.44185962    -0.021584582   -0.021552171    304.79021     -61672.422     -1329.0762      333456.37      79.996085      64.282163      64.845495    
     16400   0.114          0.43550555    -0.0044097326  -0.01781314     298.70814     -61676.699     -1377.6089      333262.09      80.139963      64.201918      64.772219    
     16600   0.116          0.50287744     0.025022527    0.020230813    300.55935     -61690.085     -1827.1026      332892.5       80.283841      64.062461      64.725029    
     16800   0.118          0.44585109    -0.026389474    0.0050273284   299.15118     -61695.176     -1414.9631      332149.3       80.427719      63.840654      64.688974    
     17000   0.12           0.48482304     0.0094494931   0.0032026044   303.84919     -61702.075     -1658.2504      331847.42      80.571597      63.767885      64.588391    
     17200   0.122          0.51243465     0.044031285    0.025121087    306.49864     -61708.484     -1938.6234      331459.96      80.715475      63.688918      64.477829    
     17400   0.124          0.51104633     0.015666282    0.049348586    300.03275     -61716.551     -1920.204       330911.41      80.859352      63.530809      64.416496    
     17600   0.126          0.4581756     -0.026010584   -0.044061533    300.90659     -61733.983     -1293.6783      329915.8       81.00323       63.403956      64.236878    
     17800   0.128          0.4924601     -0.024329885   -0.026236292    300.67096     -61743.939     -1472.9797      329376.54      81.147108      63.256462      64.167442    
     18000   0.13           0.52751851     0.0038325117   0.03883095     301.32663     -61749.428     -1900.6066      329121.76      81.290986      63.085409      64.177867    
     18200   0.132          0.52226742     0.039883053    0.016893936    299.91937     -61760.765     -1930.148       328572.77      81.434864      62.953434      64.091696    
     18400   0.134          0.54340445     0.022570269    0.032516837    300.5307      -61760.997     -1994.9718      328188.11      81.578742      62.831643      64.02763     
     18600   0.136          0.51894662     0.012013512   -0.0080918544   298.83689     -61770.113     -1742.8943      327587.43      81.72262       62.717132      63.914405    
     18800   0.138          0.51294169     0.010197313    0.032164795    300.37505     -61770.123     -1851.0127      327411.12      81.866497      62.583743      63.903651    
     19000   0.14           0.50967091     0.012563553    0.017278488    302.76889     -61787.649     -1798.3765      326912.77      82.010375      62.509511      63.770083    
     19200   0.142          0.52613704    -0.003413055   -0.014582941    300.69481     -61787.933     -1693.8035      326469.5       82.154253      62.465519      63.616856    
     19400   0.144          0.54036415     0.006133382    0.0065377559   297.89069     -61793.017     -1843.4509      326287.14      82.298131      62.369163      63.568222    
     19600   0.146          0.53422842     0.013342129    0.0078251859   299.84015     -61792.874     -1851.3191      325949.82      82.442009      62.264372      63.498369    
     19800   0.148          0.52857522    -0.013896096   -0.036138316    302.47529     -61785.133     -1595.136       325710.59      82.585887      62.19057       63.416389    
     20000   0.15           0.53886479    -0.046992185   -0.036239281    302.43621     -61799.712     -1518.7777      325384.69      82.729765      62.108317      63.326512    
     20200   0.152          0.55652125    -0.0022685185  -0.005342204    298.33822     -61799.349     -1829.7017      325433.37      82.873642      62.103066      63.231374    
     20400   0.154          0.59893253     0.01579381    -0.0012592305   297.46998     -61805.013     -2044.8904      325425.99      83.01752       62.091391      63.132223    
     20600   0.156          0.61069244    -0.017157797   -0.011121736    299.12886     -61810.6       -1941.3763      325211.6       83.161398      62.001514      63.072776    
     20800   0.158          0.61218153    -0.006593695   -0.019507543    298.28456     -61809.51      -1953.601       325196.57      83.305276      61.944989      63.018385    
     21000   0.16           0.58912045    -0.015744102    0.016109112    300.10084     -61814.434     -1964.9515      325214.26      83.449154      61.858465      63.001154    
     21200   0.162          0.60425522     0.010791605   -0.0064419123   302.13388     -61808.801     -2028.683       325175.86      83.593032      61.907108      62.835882    
     21400   0.164          0.58259517    -0.011727096   -0.0079490871   297.70699     -61812.428     -1876.3966      325008.45      83.736909      61.826183      62.777684    
     21600   0.166          0.57774464    -0.02681793     0.0033620927   299.68955     -61819.788     -1847.6293      324763.34      83.880787      61.696066      62.754812    
     21800   0.168          0.57728622    -0.010693184    0.013322438    301.84919     -61828.233     -1933.0516      324542.45      84.024665      61.642919      62.658721    
     22000   0.17           0.59343323     0.02639411     0.0026168779   301.85192     -61827.831     -2074.8141      324476.8       84.168543      61.657619      62.524048    
     22200   0.172          0.59052156     0.01872684     0.010500921    297.62973     -61830.183     -2065.8311      324252.4       84.312421      61.606106      62.426341    
     22400   0.174          0.52760853     0.0015177696  -0.016236508    300.98716     -61829.563     -1709.6327      323830.71      84.456299      61.531801      62.314104    
     22600   0.176          0.54250724    -0.014922917    0.029123279    298.8115      -61838.136     -1855.692       323618.74      84.600177      61.448008      62.252183    
     22800   0.178          0.56741616     0.029499088    0.0062289273   301.15174     -61840.979     -2010.4806      323506.29      84.744054      61.520262      62.051932    
     23000   0.18           0.56256106     0.048785281    0.044459396    300.43636     -61850.746     -2186.0191      323377.55      84.887932      61.515406      61.926997    
     23200   0.182          0.56788014     0.014860538    0.028449608    301.85752     -61853.407     -2037.301       323204.07      85.03181       61.465671      61.839044    
     23400   0.184          0.56781225    -0.004491711   -0.022105177    298.50997     -61858.676     -1804.0512      322883.46      85.175688      61.403387      61.735906    
     23600   0.186          0.5678099     -0.014399354    0.014661617    302.26653     -61857.551     -1893.5739      322873.72      85.319566      61.342617      61.690993    
     23800   0.188          0.61061617     0.032715471    0.0084540272   302.69503     -61859.343     -2172.6189      322849.77      85.463444      61.371453      61.553633    
     24000   0.19           0.57179463     0.0031600487   0.024416334    300.75876     -61870.453     -1997.9034      322573.43      85.607322      61.308429      61.460699    
     24200   0.192          0.59544494     0.0071744197  -0.0087896573   298.54282     -61871.668     -1979.4323      322441.06      85.751199      61.387418      61.253481    
     24400   0.194          0.57619229    -0.0087474919  -0.037471944    299.23908     -61863.036     -1766.5762      322277.64      85.895077      61.394261      61.113072    
     24600   0.196          0.60360024    -0.028470518   -0.021906838    299.07048     -61876.661     -1844.0763      322098.87      86.038955      61.271345      61.09936     
     24800   0.198          0.61460015    -0.017461231   -0.010005809    300.348       -61884.537     -1957.1104      321900.59      86.182833      61.182729      61.048102    
     25000   0.2            0.65033589     0.01407342    -0.0048516362   297.07135     -61877.653     -2198.5256      321978.81      86.326711      61.199022      60.944934    
Loop time of 398.88 on 8 procs for 20000 steps with 17682 atoms

Performance: 4.332 ns/day, 5.540 hours/ns, 50.140 timesteps/s, 886.582 katom-step/s
601.8% CPU use with 1 MPI tasks x 8 OpenMP threads

MPI task timing breakdown:
Section |  min time  |  avg time  |  max time  |%varavg| %total
---------------------------------------------------------------
Pair    | 359.45     | 359.45     | 359.45     |   0.0 | 90.12
Neigh   | 3.4281     | 3.4281     | 3.4281     |   0.0 |  0.86
Comm    | 2.5552     | 2.5552     | 2.5552     |   0.0 |  0.64
Output  | 0.50618    | 0.50618    | 0.50618    |   0.0 |  0.13
Modify  | 32.009     | 32.009     | 32.009     |   0.0 |  8.02
Other   |            | 0.9277     |            |       |  0.23

Nlocal:          17682 ave       17682 max       17682 min
Histogram: 1 0 0 0 0 0 0 0 0 0
Nghost:          26837 ave       26837 max       26837 min
Histogram: 1 0 0 0 0 0 0 0 0 0
Neighs:    3.59913e+06 ave 3.59913e+06 max 3.59913e+06 min
Histogram: 1 0 0 0 0 0 0 0 0 0

Total # of neighbors = 3599134
Ave neighs/atom = 203.5479
Neighbor list builds = 255
Dangerous builds = 0

# Save final deformed structure restart
write_restart   tensile_deformed.restart
System init for write_restart ...
Last active /omp style is pair_style eam/alloy/omp
print           "=== Phase 4 Tensile Simulation Complete ==="
=== Phase 4 Tensile Simulation Complete ===
Total wall time: 0:06:39
