LAMMPS (4 Jul 2026)
OMP_NUM_THREADS environment is not set. Defaulting to 1 thread.
  using 1 OpenMP thread(s) per MPI task
Loaded 1 plugins from C:\Users\mitra\AppData\Local\LAMMPS 64-bit 4Jul2026\plugins
package omp 8
set 8 OpenMP thread(s) per MPI task
using multi-threaded neighbor list subroutines
# Sample 10 Simulation Pipeline (500 grains, 220 A box)
units           metal
dimension       3
boundary        p p p
atom_style      atomic

read_data       ../data/sample_10_polycrystal.data
Reading data file ...
  orthogonal box = (0 0 0) to (220 220 220)
  1 by 1 by 1 MPI processor grid
  reading atoms ...
  389637 atoms
  read_data CPU = 2.807 seconds

pair_style      eam/alloy
pair_coeff      * * ../data/Al_zhou.eam.alloy Al Al Al Al Al Al Al Al Al Al Al Al Al Al Al Al Al Al Al Al Al Al Al Al Al Al Al Al Al Al Al Al Al Al Al Al Al Al Al Al Al Al Al Al Al Al Al Al Al Al Al Al Al Al Al Al Al Al Al Al Al Al Al Al Al Al Al Al Al Al Al Al Al Al Al Al Al Al Al Al Al Al Al Al Al Al Al Al Al Al Al Al Al Al Al Al Al Al Al Al Al Al Al Al Al Al Al Al Al Al Al Al Al Al Al Al Al Al Al Al Al Al Al Al Al Al Al Al Al Al Al Al Al Al Al Al Al Al Al Al Al Al Al Al Al Al Al Al Al Al Al Al Al Al Al Al Al Al Al Al Al Al Al Al Al Al Al Al Al Al Al Al Al Al Al Al Al Al Al Al Al Al Al Al Al Al Al Al Al Al Al Al Al Al Al Al Al Al Al Al Al Al Al Al Al Al Al Al Al Al Al Al Al Al Al Al Al Al Al Al Al Al Al Al Al Al Al Al Al Al Al Al Al Al Al Al Al Al Al Al Al Al Al Al Al Al Al Al Al Al Al Al Al Al Al Al Al Al Al Al Al Al Al Al Al Al Al Al Al Al Al Al Al Al Al Al Al Al Al Al Al Al Al Al Al Al Al Al Al Al Al Al Al Al Al Al Al Al Al Al Al Al Al Al Al Al Al Al Al Al Al Al Al Al Al Al Al Al Al Al Al Al Al Al Al Al Al Al Al Al Al Al Al Al Al Al Al Al Al Al Al Al Al Al Al Al Al Al Al Al Al Al Al Al Al Al Al Al Al Al Al Al Al Al Al Al Al Al Al Al Al Al Al Al Al Al Al Al Al Al Al Al Al Al Al Al Al Al Al Al Al Al Al Al Al Al Al Al Al Al Al Al Al Al Al Al Al Al Al Al Al Al Al Al Al Al Al Al Al Al Al Al Al Al Al Al Al Al Al Al Al Al Al Al Al Al Al Al Al Al Al Al Al Al Al Al Al Al Al Al Al Al Al Al Al Al Al Al Al Al Al Al Al Al Al Al Al Al Al Al Al Al Al Al Al Al Al Al Al Al Al Al Al Al Al Al Al Al Al Al Al Al Al Al Al Al Al Al Al Al
Reading eam/alloy potential file ../data/Al_zhou.eam.alloy with DATE: 2007-10-12

neighbor        2.0 bin
neigh_modify    every 1 delay 5 check yes

# Stage 1: Energy Minimization
minimize        1.0e-15 1.0e-15 1000 10000
Switching to 'neigh_modify every 1 delay 0 check yes' setting during minimization
Last active /omp style is pair_style eam/alloy/omp
Neighbor list info ...
  update: every = 1 steps, delay = 0 steps, check = yes
  max neighbors/atom: 2000, page size: 100000
  master list distance cutoff = 12.1025
  ghost atom cutoff = 12.1025
  binsize = 6.05125, bins = 37 37 37
  1 neighbor lists, perpetual/occasional/extra = 1 0 0
  (1) pair eam/alloy/omp, perpetual
      attributes: half, newton on, omp
      pair build: half/bin/atomonly/newton/omp
      stencil: half/bin/3d
      bin: standard
WARNING: A per-atom density exceeded rhomax of EAM potential table - a linear extrapolation to the energy was made (src/OPENMP/pair_eam_omp.cpp:101)
Per MPI rank memory allocation (min/avg/max) = 481.8 | 481.8 | 481.8 Mbytes
   Step          Temp          E_pair         E_mol          TotEng         Press     
         0   0             -1309108.9      0             -1309108.9     -7315.1021    
      1000   0             -1345979.8      0             -1345979.8     -6298.3458    
Loop time of 568.284 on 8 procs for 1000 steps with 389637 atoms

700.6% CPU use with 1 MPI tasks x 8 OpenMP threads

Minimization stats:
  Stopping criterion = max iterations
  Energy initial, next-to-last, final = 
     -1309108.94765054  -1345975.51929214  -1345979.82868503
  Force two-norm initial, final = 1383.5416 3.7760293
  Force max component initial, final = 314.21575 0.82660283
  Final line search alpha, max atom move = 0.31800727 0.26286571
  Iterations, force evaluations = 1000 1000

MPI task timing breakdown:
Section |  min time  |  avg time  |  max time  |%varavg| %total
---------------------------------------------------------------
Pair    | 528.93     | 528.93     | 528.93     |   0.0 | 93.07
Neigh   | 16.448     | 16.448     | 16.448     |   0.0 |  2.89
Comm    | 2.1895     | 2.1895     | 2.1895     |   0.0 |  0.39
Output  | 0.003884   | 0.003884   | 0.003884   |   0.0 |  0.00
Modify  | 4.9417     | 4.9417     | 4.9417     |   0.0 |  0.87
Other   |            | 15.77      |            |       |  2.78

Nlocal:         389637 ave      389637 max      389637 min
Histogram: 1 0 0 0 0 0 0 0 0 0
Nghost:         109558 ave      109558 max      109558 min
Histogram: 1 0 0 0 0 0 0 0 0 0
Neighs:    6.64112e+07 ave 6.64112e+07 max 6.64112e+07 min
Histogram: 1 0 0 0 0 0 0 0 0 0

Total # of neighbors = 66411173
Ave neighs/atom = 170.4437
Neighbor list builds = 56
Dangerous builds = 0

# Stage 2: NPT Equilibration
reset_timestep  0
timestep        0.001
velocity        all create 300.0 110 mom yes rot yes dist gaussian
fix             npt_eq all npt temp 300.0 300.0 0.1 iso 0.0 0.0 1.0
run             1500
Last active /omp style is pair_style eam/alloy/omp
Per MPI rank memory allocation (min/avg/max) = 462.6 | 462.6 | 462.6 Mbytes
   Step          Temp          E_pair         E_mol          TotEng         Press          Volume    
         0   300           -1345979.8      0             -1330870.5     -4782.7059      10648000     
      1500   305.36169     -1336001        0             -1320621.6     -2038.1389      9518929.4    
Loop time of 654.454 on 8 procs for 1500 steps with 389637 atoms

Performance: 0.198 ns/day, 121.195 hours/ns, 2.292 timesteps/s, 893.042 katom-step/s
702.3% CPU use with 1 MPI tasks x 8 OpenMP threads

MPI task timing breakdown:
Section |  min time  |  avg time  |  max time  |%varavg| %total
---------------------------------------------------------------
Pair    | 616.52     | 616.52     | 616.52     |   0.0 | 94.20
Neigh   | 9.569      | 9.569      | 9.569      |   0.0 |  1.46
Comm    | 2.916      | 2.916      | 2.916      |   0.0 |  0.45
Output  | 0.002249   | 0.002249   | 0.002249   |   0.0 |  0.00
Modify  | 23.344     | 23.344     | 23.344     |   0.0 |  3.57
Other   |            | 2.103      |            |       |  0.32

Nlocal:         389637 ave      389637 max      389637 min
Histogram: 1 0 0 0 0 0 0 0 0 0
Nghost:         116909 ave      116909 max      116909 min
Histogram: 1 0 0 0 0 0 0 0 0 0
Neighs:     6.9314e+07 ave  6.9314e+07 max  6.9314e+07 min
Histogram: 1 0 0 0 0 0 0 0 0 0

Total # of neighbors = 69313951
Ave neighs/atom = 177.89366
Neighbor list builds = 35
Dangerous builds = 0
unfix           npt_eq

# Stage 3: Tensile Loading (10,000 steps -> 10% strain)
reset_timestep  0
dump            d_tensile all custom 1000 sample_10_tensile.lammpstrj id type x y z
fix             deform_x all deform 1 x erate 0.01 remap x
fix             npt_tr all npt temp 300.0 300.0 0.1 y 0.0 0.0 1.0 z 0.0 0.0 1.0
run             10000
Last active /omp style is pair_style eam/alloy/omp
Per MPI rank memory allocation (min/avg/max) = 473 | 473 | 473 Mbytes
   Step          Temp          E_pair         E_mol          TotEng         Press          Volume    
         0   305.36169     -1336001        0             -1320621.6     -2038.1389      9518929.4    
     10000   300.25751     -1355658.8      0             -1340536.5     -1760.1275      7584362.9    
Loop time of 15514.4 on 8 procs for 10000 steps with 389637 atoms

Performance: 0.056 ns/day, 430.957 hours/ns, 0.645 timesteps/s, 251.145 katom-step/s
347.2% CPU use with 1 MPI tasks x 8 OpenMP threads

MPI task timing breakdown:
Section |  min time  |  avg time  |  max time  |%varavg| %total
---------------------------------------------------------------
Pair    | 14829      | 14829      | 14829      |   0.0 | 95.58
Neigh   | 187.29     | 187.29     | 187.29     |   0.0 |  1.21
Comm    | 40.822     | 40.822     | 40.822     |   0.0 |  0.26
Output  | 14.492     | 14.492     | 14.492     |   0.0 |  0.09
Modify  | 411.14     | 411.14     | 411.14     |   0.0 |  2.65
Other   |            | 31.34      |            |       |  0.20

Nlocal:         389637 ave      389637 max      389637 min
Histogram: 1 0 0 0 0 0 0 0 0 0
Nghost:         140854 ave      140854 max      140854 min
Histogram: 1 0 0 0 0 0 0 0 0 0
Neighs:    7.75277e+07 ave 7.75277e+07 max 7.75277e+07 min
Histogram: 1 0 0 0 0 0 0 0 0 0

Total # of neighbors = 77527738
Ave neighs/atom = 198.97427
Neighbor list builds = 212
Dangerous builds = 0
Total wall time: 4:39:04
