LAMMPS (4 Jul 2026)
OMP_NUM_THREADS environment is not set. Defaulting to 1 thread.
  using 1 OpenMP thread(s) per MPI task
Loaded 1 plugins from C:\Users\mitra\AppData\Local\LAMMPS 64-bit 4Jul2026\plugins
package omp 8
set 8 OpenMP thread(s) per MPI task
using multi-threaded neighbor list subroutines
# Sample 03 Simulation Pipeline (300 grains, 180 A box)
units           metal
dimension       3
boundary        p p p
atom_style      atomic

read_data       ../data/sample_03_polycrystal.data
Reading data file ...
  orthogonal box = (0 0 0) to (180 180 180)
  1 by 1 by 1 MPI processor grid
  reading atoms ...
  198918 atoms
  read_data CPU = 0.972 seconds

pair_style      eam/alloy
pair_coeff      * * ../data/Al_zhou.eam.alloy Al Al Al Al Al Al Al Al Al Al Al Al Al Al Al Al Al Al Al Al Al Al Al Al Al Al Al Al Al Al Al Al Al Al Al Al Al Al Al Al Al Al Al Al Al Al Al Al Al Al Al Al Al Al Al Al Al Al Al Al Al Al Al Al Al Al Al Al Al Al Al Al Al Al Al Al Al Al Al Al Al Al Al Al Al Al Al Al Al Al Al Al Al Al Al Al Al Al Al Al Al Al Al Al Al Al Al Al Al Al Al Al Al Al Al Al Al Al Al Al Al Al Al Al Al Al Al Al Al Al Al Al Al Al Al Al Al Al Al Al Al Al Al Al Al Al Al Al Al Al Al Al Al Al Al Al Al Al Al Al Al Al Al Al Al Al Al Al Al Al Al Al Al Al Al Al Al Al Al Al Al Al Al Al Al Al Al Al Al Al Al Al Al Al Al Al Al Al Al Al Al Al Al Al Al Al Al Al Al Al Al Al Al Al Al Al Al Al Al Al Al Al Al Al Al Al Al Al Al Al Al Al Al Al Al Al Al Al Al Al Al Al Al Al Al Al Al Al Al Al Al Al Al Al Al Al Al Al Al Al Al Al Al Al Al Al Al Al Al Al Al Al Al Al Al Al Al Al Al Al Al Al Al Al Al Al Al Al Al Al Al Al Al Al Al Al Al Al Al Al
Reading eam/alloy potential file ../data/Al_zhou.eam.alloy with DATE: 2007-10-12

neighbor        2.0 bin
neigh_modify    every 1 delay 5 check yes

# Stage 1: Energy Minimization
minimize        1.0e-15 1.0e-15 1000 10000
Switching to 'neigh_modify every 1 delay 0 check yes' setting during minimization
Last active /omp style is pair_style eam/alloy/omp
Neighbor list info ...
  update: every = 1 steps, delay = 0 steps, check = yes
  max neighbors/atom: 2000, page size: 100000
  master list distance cutoff = 12.1025
  ghost atom cutoff = 12.1025
  binsize = 6.05125, bins = 30 30 30
  1 neighbor lists, perpetual/occasional/extra = 1 0 0
  (1) pair eam/alloy/omp, perpetual
      attributes: half, newton on, omp
      pair build: half/bin/atomonly/newton/omp
      stencil: half/bin/3d
      bin: standard
Per MPI rank memory allocation (min/avg/max) = 252.3 | 252.3 | 252.3 Mbytes
   Step          Temp          E_pair         E_mol          TotEng         Press     
         0   0             -664425.61      0             -664425.61     -8130.0908    
      1000   0             -685096.01      0             -685096.01     -5363.9935    
Loop time of 715.679 on 8 procs for 1000 steps with 198918 atoms

347.3% CPU use with 1 MPI tasks x 8 OpenMP threads

Minimization stats:
  Stopping criterion = max iterations
  Energy initial, next-to-last, final = 
     -664425.608061276  -685093.456164438  -685096.005328755
  Force two-norm initial, final = 1069.8351 3.1498292
  Force max component initial, final = 240.70648 0.66768314
  Final line search alpha, max atom move = 0.24195111 0.16154667
  Iterations, force evaluations = 1000 1000

MPI task timing breakdown:
Section |  min time  |  avg time  |  max time  |%varavg| %total
---------------------------------------------------------------
Pair    | 677.72     | 677.72     | 677.72     |   0.0 | 94.70
Neigh   | 15.211     | 15.211     | 15.211     |   0.0 |  2.13
Comm    | 2.2612     | 2.2612     | 2.2612     |   0.0 |  0.32
Output  | 0.003194   | 0.003194   | 0.003194   |   0.0 |  0.00
Modify  | 5.0033     | 5.0033     | 5.0033     |   0.0 |  0.70
Other   |            | 15.48      |            |       |  2.16

Nlocal:         198918 ave      198918 max      198918 min
Histogram: 1 0 0 0 0 0 0 0 0 0
Nghost:          74506 ave       74506 max       74506 min
Histogram: 1 0 0 0 0 0 0 0 0 0
Neighs:    3.30997e+07 ave 3.30997e+07 max 3.30997e+07 min
Histogram: 1 0 0 0 0 0 0 0 0 0

Total # of neighbors = 33099740
Ave neighs/atom = 166.39892
Neighbor list builds = 45
Dangerous builds = 0

# Stage 2: NPT Equilibration
reset_timestep  0
timestep        0.001
velocity        all create 300.0 103 mom yes rot yes dist gaussian
fix             npt_eq all npt temp 300.0 300.0 0.1 iso 0.0 0.0 1.0
run             1500
Last active /omp style is pair_style eam/alloy/omp
Per MPI rank memory allocation (min/avg/max) = 241.5 | 241.5 | 241.5 Mbytes
   Step          Temp          E_pair         E_mol          TotEng         Press          Volume    
         0   300           -685096.01      0             -677382.39     -3951.2628      5832000      
      1500   302.25073     -680415.63      0             -672644.15     -1727.542       5129226.9    
Loop time of 874.271 on 8 procs for 1500 steps with 198918 atoms

Performance: 0.148 ns/day, 161.902 hours/ns, 1.716 timesteps/s, 341.287 katom-step/s
370.7% CPU use with 1 MPI tasks x 8 OpenMP threads

MPI task timing breakdown:
Section |  min time  |  avg time  |  max time  |%varavg| %total
---------------------------------------------------------------
Pair    | 833.63     | 833.63     | 833.63     |   0.0 | 95.35
Neigh   | 11.403     | 11.403     | 11.403     |   0.0 |  1.30
Comm    | 3.1161     | 3.1161     | 3.1161     |   0.0 |  0.36
Output  | 0.001589   | 0.001589   | 0.001589   |   0.0 |  0.00
Modify  | 24.08      | 24.08      | 24.08      |   0.0 |  2.75
Other   |            | 2.038      |            |       |  0.23

Nlocal:         198918 ave      198918 max      198918 min
Histogram: 1 0 0 0 0 0 0 0 0 0
Nghost:          80337 ave       80337 max       80337 min
Histogram: 1 0 0 0 0 0 0 0 0 0
Neighs:    3.47748e+07 ave 3.47748e+07 max 3.47748e+07 min
Histogram: 1 0 0 0 0 0 0 0 0 0

Total # of neighbors = 34774818
Ave neighs/atom = 174.81987
Neighbor list builds = 35
Dangerous builds = 0
unfix           npt_eq

# Stage 3: Tensile Loading (10,000 steps -> 10% strain)
reset_timestep  0
dump            d_tensile all custom 1000 sample_03_tensile.lammpstrj id type x y z
fix             deform_x all deform 1 x erate 0.01 remap x
fix             npt_tr all npt temp 300.0 300.0 0.1 y 0.0 0.0 1.0 z 0.0 0.0 1.0
run             10000
Last active /omp style is pair_style eam/alloy/omp
Per MPI rank memory allocation (min/avg/max) = 254.8 | 254.8 | 254.8 Mbytes
   Step          Temp          E_pair         E_mol          TotEng         Press          Volume    
         0   302.25073     -680415.63      0             -672644.15     -1727.542       5129226.9    
     10000   300.0647      -691266.99      0             -683551.72     -1570.2022      3907714.5    
Loop time of 4439.2 on 8 procs for 10000 steps with 198918 atoms

Performance: 0.195 ns/day, 123.311 hours/ns, 2.253 timesteps/s, 448.094 katom-step/s
427.9% CPU use with 1 MPI tasks x 8 OpenMP threads

MPI task timing breakdown:
Section |  min time  |  avg time  |  max time  |%varavg| %total
---------------------------------------------------------------
Pair    | 4204.9     | 4204.9     | 4204.9     |   0.0 | 94.72
Neigh   | 53.249     | 53.249     | 53.249     |   0.0 |  1.20
Comm    | 16.55      | 16.55      | 16.55      |   0.0 |  0.37
Output  | 4.9229     | 4.9229     | 4.9229     |   0.0 |  0.11
Modify  | 149.4      | 149.4      | 149.4      |   0.0 |  3.37
Other   |            | 10.15      |            |       |  0.23

Nlocal:         198918 ave      198918 max      198918 min
Histogram: 1 0 0 0 0 0 0 0 0 0
Nghost:         104365 ave      104365 max      104365 min
Histogram: 1 0 0 0 0 0 0 0 0 0
Neighs:    3.93019e+07 ave 3.93019e+07 max 3.93019e+07 min
Histogram: 1 0 0 0 0 0 0 0 0 0

Total # of neighbors = 39301855
Ave neighs/atom = 197.57817
Neighbor list builds = 202
Dangerous builds = 0
Total wall time: 1:40:33
