LAMMPS (4 Jul 2026)
OMP_NUM_THREADS environment is not set. Defaulting to 1 thread.
  using 1 OpenMP thread(s) per MPI task
Loaded 1 plugins from C:\Users\mitra\AppData\Local\LAMMPS 64-bit 4Jul2026\plugins
package omp 8
set 8 OpenMP thread(s) per MPI task
using multi-threaded neighbor list subroutines
# Sample 04 Simulation Pipeline (350 grains, 190 A box)
units           metal
dimension       3
boundary        p p p
atom_style      atomic

read_data       ../data/sample_04_polycrystal.data
Reading data file ...
  orthogonal box = (0 0 0) to (190 190 190)
  1 by 1 by 1 MPI processor grid
  reading atoms ...
  243767 atoms
  read_data CPU = 2.172 seconds

pair_style      eam/alloy
pair_coeff      * * ../data/Al_zhou.eam.alloy Al Al Al Al Al Al Al Al Al Al Al Al Al Al Al Al Al Al Al Al Al Al Al Al Al Al Al Al Al Al Al Al Al Al Al Al Al Al Al Al Al Al Al Al Al Al Al Al Al Al Al Al Al Al Al Al Al Al Al Al Al Al Al Al Al Al Al Al Al Al Al Al Al Al Al Al Al Al Al Al Al Al Al Al Al Al Al Al Al Al Al Al Al Al Al Al Al Al Al Al Al Al Al Al Al Al Al Al Al Al Al Al Al Al Al Al Al Al Al Al Al Al Al Al Al Al Al Al Al Al Al Al Al Al Al Al Al Al Al Al Al Al Al Al Al Al Al Al Al Al Al Al Al Al Al Al Al Al Al Al Al Al Al Al Al Al Al Al Al Al Al Al Al Al Al Al Al Al Al Al Al Al Al Al Al Al Al Al Al Al Al Al Al Al Al Al Al Al Al Al Al Al Al Al Al Al Al Al Al Al Al Al Al Al Al Al Al Al Al Al Al Al Al Al Al Al Al Al Al Al Al Al Al Al Al Al Al Al Al Al Al Al Al Al Al Al Al Al Al Al Al Al Al Al Al Al Al Al Al Al Al Al Al Al Al Al Al Al Al Al Al Al Al Al Al Al Al Al Al Al Al Al Al Al Al Al Al Al Al Al Al Al Al Al Al Al Al Al Al Al Al Al Al Al Al Al Al Al Al Al Al Al Al Al Al Al Al Al Al Al Al Al Al Al Al Al Al Al Al Al Al Al Al Al Al Al Al Al Al Al Al Al Al Al Al Al Al Al Al Al
Reading eam/alloy potential file ../data/Al_zhou.eam.alloy with DATE: 2007-10-12

neighbor        2.0 bin
neigh_modify    every 1 delay 5 check yes

# Stage 1: Energy Minimization
minimize        1.0e-15 1.0e-15 1000 10000
Switching to 'neigh_modify every 1 delay 0 check yes' setting during minimization
Last active /omp style is pair_style eam/alloy/omp
Neighbor list info ...
  update: every = 1 steps, delay = 0 steps, check = yes
  max neighbors/atom: 2000, page size: 100000
  master list distance cutoff = 12.1025
  ghost atom cutoff = 12.1025
  binsize = 6.05125, bins = 32 32 32
  1 neighbor lists, perpetual/occasional/extra = 1 0 0
  (1) pair eam/alloy/omp, perpetual
      attributes: half, newton on, omp
      pair build: half/bin/atomonly/newton/omp
      stencil: half/bin/3d
      bin: standard
Per MPI rank memory allocation (min/avg/max) = 304.7 | 304.7 | 304.7 Mbytes
   Step          Temp          E_pair         E_mol          TotEng         Press     
         0   0             -816172.81      0             -816172.81     -8661.3481    
      1000   0             -841352.27      0             -841352.27     -5869.9611    
Loop time of 930.969 on 8 procs for 1000 steps with 243767 atoms

331.0% CPU use with 1 MPI tasks x 8 OpenMP threads

Minimization stats:
  Stopping criterion = max iterations
  Energy initial, next-to-last, final = 
     -816172.809128976  -841350.633535116  -841352.267773272
  Force two-norm initial, final = 1054.6787 2.8925074
  Force max component initial, final = 233.57434 0.32985426
  Final line search alpha, max atom move = 0.13730253 0.045289822
  Iterations, force evaluations = 1000 1000

MPI task timing breakdown:
Section |  min time  |  avg time  |  max time  |%varavg| %total
---------------------------------------------------------------
Pair    | 879.15     | 879.15     | 879.15     |   0.0 | 94.43
Neigh   | 24.688     | 24.688     | 24.688     |   0.0 |  2.65
Comm    | 2.5676     | 2.5676     | 2.5676     |   0.0 |  0.28
Output  | 0.004737   | 0.004737   | 0.004737   |   0.0 |  0.00
Modify  | 5.8077     | 5.8077     | 5.8077     |   0.0 |  0.62
Other   |            | 18.75      |            |       |  2.01

Nlocal:         243767 ave      243767 max      243767 min
Histogram: 1 0 0 0 0 0 0 0 0 0
Nghost:          75938 ave       75938 max       75938 min
Histogram: 1 0 0 0 0 0 0 0 0 0
Neighs:    4.13189e+07 ave 4.13189e+07 max 4.13189e+07 min
Histogram: 1 0 0 0 0 0 0 0 0 0

Total # of neighbors = 41318903
Ave neighs/atom = 169.50163
Neighbor list builds = 55
Dangerous builds = 0

# Stage 2: NPT Equilibration
reset_timestep  0
timestep        0.001
velocity        all create 300.0 104 mom yes rot yes dist gaussian
fix             npt_eq all npt temp 300.0 300.0 0.1 iso 0.0 0.0 1.0
run             1500
Last active /omp style is pair_style eam/alloy/omp
Per MPI rank memory allocation (min/avg/max) = 292.9 | 292.9 | 292.9 Mbytes
   Step          Temp          E_pair         E_mol          TotEng         Press          Volume    
         0   300           -841352.27      0             -831899.5      -4397.9288      6859000      
      1500   303.77371     -835398.52      0             -825826.85     -1904.7891      6063937.4    
Loop time of 1254.82 on 8 procs for 1500 steps with 243767 atoms

Performance: 0.103 ns/day, 232.374 hours/ns, 1.195 timesteps/s, 291.396 katom-step/s
323.7% CPU use with 1 MPI tasks x 8 OpenMP threads

MPI task timing breakdown:
Section |  min time  |  avg time  |  max time  |%varavg| %total
---------------------------------------------------------------
Pair    | 1197       | 1197       | 1197       |   0.0 | 95.39
Neigh   | 16.599     | 16.599     | 16.599     |   0.0 |  1.32
Comm    | 3.8613     | 3.8613     | 3.8613     |   0.0 |  0.31
Output  | 0.001892   | 0.001892   | 0.001892   |   0.0 |  0.00
Modify  | 34.508     | 34.508     | 34.508     |   0.0 |  2.75
Other   |            | 2.862      |            |       |  0.23

Nlocal:         243767 ave      243767 max      243767 min
Histogram: 1 0 0 0 0 0 0 0 0 0
Nghost:          84076 ave       84076 max       84076 min
Histogram: 1 0 0 0 0 0 0 0 0 0
Neighs:    4.32877e+07 ave 4.32877e+07 max 4.32877e+07 min
Histogram: 1 0 0 0 0 0 0 0 0 0

Total # of neighbors = 43287716
Ave neighs/atom = 177.57824
Neighbor list builds = 35
Dangerous builds = 0
unfix           npt_eq

# Stage 3: Tensile Loading (10,000 steps -> 10% strain)
reset_timestep  0
dump            d_tensile all custom 1000 sample_04_tensile.lammpstrj id type x y z
fix             deform_x all deform 1 x erate 0.01 remap x
fix             npt_tr all npt temp 300.0 300.0 0.1 y 0.0 0.0 1.0 z 0.0 0.0 1.0
run             10000
Last active /omp style is pair_style eam/alloy/omp
Per MPI rank memory allocation (min/avg/max) = 306.9 | 306.9 | 306.9 Mbytes
   Step          Temp          E_pair         E_mol          TotEng         Press          Volume    
         0   303.77371     -835398.52      0             -825826.85     -1904.7891      6063937.4    
     10000   300.99549     -848203.06      0             -838718.93     -1695.181       4686316.8    
Loop time of 6077.9 on 8 procs for 10000 steps with 243767 atoms

Performance: 0.142 ns/day, 168.831 hours/ns, 1.645 timesteps/s, 401.071 katom-step/s
392.5% CPU use with 1 MPI tasks x 8 OpenMP threads

MPI task timing breakdown:
Section |  min time  |  avg time  |  max time  |%varavg| %total
---------------------------------------------------------------
Pair    | 5763.2     | 5763.2     | 5763.2     |   0.0 | 94.82
Neigh   | 75.263     | 75.263     | 75.263     |   0.0 |  1.24
Comm    | 20.281     | 20.281     | 20.281     |   0.0 |  0.33
Output  | 6.2317     | 6.2317     | 6.2317     |   0.0 |  0.10
Modify  | 199.1      | 199.1      | 199.1      |   0.0 |  3.28
Other   |            | 13.81      |            |       |  0.23

Nlocal:         243767 ave      243767 max      243767 min
Histogram: 1 0 0 0 0 0 0 0 0 0
Nghost:         111609 ave      111609 max      111609 min
Histogram: 1 0 0 0 0 0 0 0 0 0
Neighs:    4.86111e+07 ave 4.86111e+07 max 4.86111e+07 min
Histogram: 1 0 0 0 0 0 0 0 0 0

Total # of neighbors = 48611119
Ave neighs/atom = 199.41632
Neighbor list builds = 201
Dangerous builds = 0
Total wall time: 2:17:51
