LAMMPS (4 Jul 2026)
OMP_NUM_THREADS environment is not set. Defaulting to 1 thread.
  using 1 OpenMP thread(s) per MPI task
Loaded 1 plugins from C:\Users\mitra\AppData\Local\LAMMPS 64-bit 4Jul2026\plugins
package omp 8
set 8 OpenMP thread(s) per MPI task
using multi-threaded neighbor list subroutines
# Sample 08 Simulation Pipeline (300 grains, 180 A box)
units           metal
dimension       3
boundary        p p p
atom_style      atomic

read_data       ../data/sample_08_polycrystal.data
Reading data file ...
  orthogonal box = (0 0 0) to (180 180 180)
  1 by 1 by 1 MPI processor grid
  reading atoms ...
  216867 atoms
  read_data CPU = 1.214 seconds

pair_style      eam/alloy
pair_coeff      * * ../data/Al_zhou.eam.alloy Al Al Al Al Al Al Al Al Al Al Al Al Al Al Al Al Al Al Al Al Al Al Al Al Al Al Al Al Al Al Al Al Al Al Al Al Al Al Al Al Al Al Al Al Al Al Al Al Al Al Al Al Al Al Al Al Al Al Al Al Al Al Al Al Al Al Al Al Al Al Al Al Al Al Al Al Al Al Al Al Al Al Al Al Al Al Al Al Al Al Al Al Al Al Al Al Al Al Al Al Al Al Al Al Al Al Al Al Al Al Al Al Al Al Al Al Al Al Al Al Al Al Al Al Al Al Al Al Al Al Al Al Al Al Al Al Al Al Al Al Al Al Al Al Al Al Al Al Al Al Al Al Al Al Al Al Al Al Al Al Al Al Al Al Al Al Al Al Al Al Al Al Al Al Al Al Al Al Al Al Al Al Al Al Al Al Al Al Al Al Al Al Al Al Al Al Al Al Al Al Al Al Al Al Al Al Al Al Al Al Al Al Al Al Al Al Al Al Al Al Al Al Al Al Al Al Al Al Al Al Al Al Al Al Al Al Al Al Al Al Al Al Al Al Al Al Al Al Al Al Al Al Al Al Al Al Al Al Al Al Al Al Al Al Al Al Al Al Al Al Al Al Al Al Al Al Al Al Al Al Al Al Al Al Al Al Al Al Al Al Al Al Al Al Al Al Al Al Al Al
Reading eam/alloy potential file ../data/Al_zhou.eam.alloy with DATE: 2007-10-12

neighbor        2.0 bin
neigh_modify    every 1 delay 5 check yes

# Stage 1: Energy Minimization
minimize        1.0e-15 1.0e-15 1000 10000
Switching to 'neigh_modify every 1 delay 0 check yes' setting during minimization
Last active /omp style is pair_style eam/alloy/omp
Neighbor list info ...
  update: every = 1 steps, delay = 0 steps, check = yes
  max neighbors/atom: 2000, page size: 100000
  master list distance cutoff = 12.1025
  ghost atom cutoff = 12.1025
  binsize = 6.05125, bins = 30 30 30
  1 neighbor lists, perpetual/occasional/extra = 1 0 0
  (1) pair eam/alloy/omp, perpetual
      attributes: half, newton on, omp
      pair build: half/bin/atomonly/newton/omp
      stencil: half/bin/3d
      bin: standard
WARNING: A per-atom density exceeded rhomax of EAM potential table - a linear extrapolation to the energy was made (src/OPENMP/pair_eam_omp.cpp:101)
Per MPI rank memory allocation (min/avg/max) = 282.4 | 282.4 | 282.4 Mbytes
   Step          Temp          E_pair         E_mol          TotEng         Press     
         0   0             -727145.4       0             -727145.4      -7890.4598    
      1000   0             -748831.82      0             -748831.82     -7024.8938    
Loop time of 245.864 on 8 procs for 1000 steps with 216867 atoms

701.9% CPU use with 1 MPI tasks x 8 OpenMP threads

Minimization stats:
  Stopping criterion = max iterations
  Energy initial, next-to-last, final = 
     -727145.398789423   -748829.99634887  -748831.819963334
  Force two-norm initial, final = 1028.9847 2.6691852
  Force max component initial, final = 261.49376 0.50812827
  Final line search alpha, max atom move = 0.22077934 0.11218422
  Iterations, force evaluations = 1000 1000

MPI task timing breakdown:
Section |  min time  |  avg time  |  max time  |%varavg| %total
---------------------------------------------------------------
Pair    | 226.02     | 226.02     | 226.02     |   0.0 | 91.93
Neigh   | 7.77       | 7.77       | 7.77       |   0.0 |  3.16
Comm    | 1.2129     | 1.2129     | 1.2129     |   0.0 |  0.49
Output  | 0.001575   | 0.001575   | 0.001575   |   0.0 |  0.00
Modify  | 2.9157     | 2.9157     | 2.9157     |   0.0 |  1.19
Other   |            | 7.946      |            |       |  3.23

Nlocal:         216867 ave      216867 max      216867 min
Histogram: 1 0 0 0 0 0 0 0 0 0
Nghost:          77952 ave       77952 max       77952 min
Histogram: 1 0 0 0 0 0 0 0 0 0
Neighs:    3.69195e+07 ave 3.69195e+07 max 3.69195e+07 min
Histogram: 1 0 0 0 0 0 0 0 0 0

Total # of neighbors = 36919531
Ave neighs/atom = 170.24043
Neighbor list builds = 56
Dangerous builds = 0

# Stage 2: NPT Equilibration
reset_timestep  0
timestep        0.001
velocity        all create 300.0 108 mom yes rot yes dist gaussian
fix             npt_eq all npt temp 300.0 300.0 0.1 iso 0.0 0.0 1.0
run             1500
Last active /omp style is pair_style eam/alloy/omp
Per MPI rank memory allocation (min/avg/max) = 269 | 269 | 269 Mbytes
   Step          Temp          E_pair         E_mol          TotEng         Press          Volume    
         0   300           -748831.82      0             -740422.18     -5484.6873      5832000      
      1500   304.12743     -744280.3       0             -735754.96     -2033.8461      5100609.4    
Loop time of 324.751 on 8 procs for 1500 steps with 216867 atoms

Performance: 0.399 ns/day, 60.139 hours/ns, 4.619 timesteps/s, 1.002 Matom-step/s
689.7% CPU use with 1 MPI tasks x 8 OpenMP threads

MPI task timing breakdown:
Section |  min time  |  avg time  |  max time  |%varavg| %total
---------------------------------------------------------------
Pair    | 304.26     | 304.26     | 304.26     |   0.0 | 93.69
Neigh   | 4.9564     | 4.9564     | 4.9564     |   0.0 |  1.53
Comm    | 1.7635     | 1.7635     | 1.7635     |   0.0 |  0.54
Output  | 0.001003   | 0.001003   | 0.001003   |   0.0 |  0.00
Modify  | 12.488     | 12.488     | 12.488     |   0.0 |  3.85
Other   |            | 1.284      |            |       |  0.40

Nlocal:         216867 ave      216867 max      216867 min
Histogram: 1 0 0 0 0 0 0 0 0 0
Nghost:          84854 ave       84854 max       84854 min
Histogram: 1 0 0 0 0 0 0 0 0 0
Neighs:    3.90646e+07 ave 3.90646e+07 max 3.90646e+07 min
Histogram: 1 0 0 0 0 0 0 0 0 0

Total # of neighbors = 39064569
Ave neighs/atom = 180.13146
Neighbor list builds = 35
Dangerous builds = 0
unfix           npt_eq

# Stage 3: Tensile Loading (10,000 steps -> 10% strain)
reset_timestep  0
dump            d_tensile all custom 1000 sample_08_tensile.lammpstrj id type x y z
fix             deform_x all deform 1 x erate 0.01 remap x
fix             npt_tr all npt temp 300.0 300.0 0.1 y 0.0 0.0 1.0 z 0.0 0.0 1.0
run             10000
Last active /omp style is pair_style eam/alloy/omp
Per MPI rank memory allocation (min/avg/max) = 277.8 | 277.8 | 277.8 Mbytes
   Step          Temp          E_pair         E_mol          TotEng         Press          Volume    
         0   304.12743     -744280.3       0             -735754.96     -2033.8461      5100609.4    
     10000   300.66765     -755627.4       0             -747199.05     -1568.143       4086744.9    
Loop time of 2399.89 on 8 procs for 10000 steps with 216867 atoms

Performance: 0.360 ns/day, 66.664 hours/ns, 4.167 timesteps/s, 903.655 katom-step/s
696.4% CPU use with 1 MPI tasks x 8 OpenMP threads

MPI task timing breakdown:
Section |  min time  |  avg time  |  max time  |%varavg| %total
---------------------------------------------------------------
Pair    | 2234.9     | 2234.9     | 2234.9     |   0.0 | 93.13
Neigh   | 32.091     | 32.091     | 32.091     |   0.0 |  1.34
Comm    | 13.082     | 13.082     | 13.082     |   0.0 |  0.55
Output  | 3.679      | 3.679      | 3.679      |   0.0 |  0.15
Modify  | 107.41     | 107.41     | 107.41     |   0.0 |  4.48
Other   |            | 8.709      |            |       |  0.36

Nlocal:         216867 ave      216867 max      216867 min
Histogram: 1 0 0 0 0 0 0 0 0 0
Nghost:         106660 ave      106660 max      106660 min
Histogram: 1 0 0 0 0 0 0 0 0 0
Neighs:    4.36298e+07 ave 4.36298e+07 max 4.36298e+07 min
Histogram: 1 0 0 0 0 0 0 0 0 0

Total # of neighbors = 43629788
Ave neighs/atom = 201.18224
Neighbor list builds = 198
Dangerous builds = 0
Total wall time: 0:49:33
