LAMMPS (4 Jul 2026)
OMP_NUM_THREADS environment is not set. Defaulting to 1 thread.
  using 1 OpenMP thread(s) per MPI task
Loaded 1 plugins from C:\Users\mitra\AppData\Local\LAMMPS 64-bit 4Jul2026\plugins
package omp 8
set 8 OpenMP thread(s) per MPI task
using multi-threaded neighbor list subroutines
# Sample 07 Simulation Pipeline (500 grains, 220 A box)
units           metal
dimension       3
boundary        p p p
atom_style      atomic

read_data       ../data/sample_07_polycrystal.data
Reading data file ...
  orthogonal box = (0 0 0) to (220 220 220)
  1 by 1 by 1 MPI processor grid
  reading atoms ...
  374506 atoms
  read_data CPU = 1.906 seconds

pair_style      eam/alloy
pair_coeff      * * ../data/Al_zhou.eam.alloy Al Al Al Al Al Al Al Al Al Al Al Al Al Al Al Al Al Al Al Al Al Al Al Al Al Al Al Al Al Al Al Al Al Al Al Al Al Al Al Al Al Al Al Al Al Al Al Al Al Al Al Al Al Al Al Al Al Al Al Al Al Al Al Al Al Al Al Al Al Al Al Al Al Al Al Al Al Al Al Al Al Al Al Al Al Al Al Al Al Al Al Al Al Al Al Al Al Al Al Al Al Al Al Al Al Al Al Al Al Al Al Al Al Al Al Al Al Al Al Al Al Al Al Al Al Al Al Al Al Al Al Al Al Al Al Al Al Al Al Al Al Al Al Al Al Al Al Al Al Al Al Al Al Al Al Al Al Al Al Al Al Al Al Al Al Al Al Al Al Al Al Al Al Al Al Al Al Al Al Al Al Al Al Al Al Al Al Al Al Al Al Al Al Al Al Al Al Al Al Al Al Al Al Al Al Al Al Al Al Al Al Al Al Al Al Al Al Al Al Al Al Al Al Al Al Al Al Al Al Al Al Al Al Al Al Al Al Al Al Al Al Al Al Al Al Al Al Al Al Al Al Al Al Al Al Al Al Al Al Al Al Al Al Al Al Al Al Al Al Al Al Al Al Al Al Al Al Al Al Al Al Al Al Al Al Al Al Al Al Al Al Al Al Al Al Al Al Al Al Al Al Al Al Al Al Al Al Al Al Al Al Al Al Al Al Al Al Al Al Al Al Al Al Al Al Al Al Al Al Al Al Al Al Al Al Al Al Al Al Al Al Al Al Al Al Al Al Al Al Al Al Al Al Al Al Al Al Al Al Al Al Al Al Al Al Al Al Al Al Al Al Al Al Al Al Al Al Al Al Al Al Al Al Al Al Al Al Al Al Al Al Al Al Al Al Al Al Al Al Al Al Al Al Al Al Al Al Al Al Al Al Al Al Al Al Al Al Al Al Al Al Al Al Al Al Al Al Al Al Al Al Al Al Al Al Al Al Al Al Al Al Al Al Al Al Al Al Al Al Al Al Al Al Al Al Al Al Al Al Al Al Al Al Al Al Al Al Al Al Al Al Al Al Al Al Al Al Al Al Al Al Al Al Al Al Al Al Al Al Al Al Al Al Al Al Al Al Al Al Al
Reading eam/alloy potential file ../data/Al_zhou.eam.alloy with DATE: 2007-10-12

neighbor        2.0 bin
neigh_modify    every 1 delay 5 check yes

# Stage 1: Energy Minimization
minimize        1.0e-15 1.0e-15 1000 10000
Switching to 'neigh_modify every 1 delay 0 check yes' setting during minimization
Last active /omp style is pair_style eam/alloy/omp
Neighbor list info ...
  update: every = 1 steps, delay = 0 steps, check = yes
  max neighbors/atom: 2000, page size: 100000
  master list distance cutoff = 12.1025
  ghost atom cutoff = 12.1025
  binsize = 6.05125, bins = 37 37 37
  1 neighbor lists, perpetual/occasional/extra = 1 0 0
  (1) pair eam/alloy/omp, perpetual
      attributes: half, newton on, omp
      pair build: half/bin/atomonly/newton/omp
      stencil: half/bin/3d
      bin: standard
WARNING: A per-atom density exceeded rhomax of EAM potential table - a linear extrapolation to the energy was made (src/OPENMP/pair_eam_omp.cpp:101)
Per MPI rank memory allocation (min/avg/max) = 463.3 | 463.3 | 463.3 Mbytes
   Step          Temp          E_pair         E_mol          TotEng         Press     
         0   0             -1256245.9      0             -1256245.9     -7790.8824    
      1000   0             -1293035.9      0             -1293035.9     -5843.7911    
Loop time of 421.014 on 8 procs for 1000 steps with 374506 atoms

710.2% CPU use with 1 MPI tasks x 8 OpenMP threads

Minimization stats:
  Stopping criterion = max iterations
  Energy initial, next-to-last, final = 
     -1256245.88584773  -1293033.55177015  -1293035.90082791
  Force two-norm initial, final = 1353.5854 3.6674237
  Force max component initial, final = 223.91361 0.33680533
  Final line search alpha, max atom move = 0.144066 0.048522197
  Iterations, force evaluations = 1000 1000

MPI task timing breakdown:
Section |  min time  |  avg time  |  max time  |%varavg| %total
---------------------------------------------------------------
Pair    | 387.7      | 387.7      | 387.7      |   0.0 | 92.09
Neigh   | 13.015     | 13.015     | 13.015     |   0.0 |  3.09
Comm    | 1.8145     | 1.8145     | 1.8145     |   0.0 |  0.43
Output  | 0.001193   | 0.001193   | 0.001193   |   0.0 |  0.00
Modify  | 4.6936     | 4.6936     | 4.6936     |   0.0 |  1.11
Other   |            | 13.79      |            |       |  3.28

Nlocal:         374506 ave      374506 max      374506 min
Histogram: 1 0 0 0 0 0 0 0 0 0
Nghost:         102347 ave      102347 max      102347 min
Histogram: 1 0 0 0 0 0 0 0 0 0
Neighs:    6.35678e+07 ave 6.35678e+07 max 6.35678e+07 min
Histogram: 1 0 0 0 0 0 0 0 0 0

Total # of neighbors = 63567799
Ave neighs/atom = 169.73773
Neighbor list builds = 56
Dangerous builds = 0

# Stage 2: NPT Equilibration
reset_timestep  0
timestep        0.001
velocity        all create 300.0 107 mom yes rot yes dist gaussian
fix             npt_eq all npt temp 300.0 300.0 0.1 iso 0.0 0.0 1.0
run             1500
Last active /omp style is pair_style eam/alloy/omp
Per MPI rank memory allocation (min/avg/max) = 444.8 | 444.8 | 444.8 Mbytes
   Step          Temp          E_pair         E_mol          TotEng         Press          Volume    
         0   300           -1293035.9      0             -1278513.3     -4387.0091      10648000     
      1500   305.44723     -1283198.8      0             -1268412.6     -1837.6704      9527140.7    
Loop time of 556.19 on 8 procs for 1500 steps with 374506 atoms

Performance: 0.233 ns/day, 102.998 hours/ns, 2.697 timesteps/s, 1.010 Matom-step/s
710.0% CPU use with 1 MPI tasks x 8 OpenMP threads

MPI task timing breakdown:
Section |  min time  |  avg time  |  max time  |%varavg| %total
---------------------------------------------------------------
Pair    | 521.1      | 521.1      | 521.1      |   0.0 | 93.69
Neigh   | 8.2103     | 8.2103     | 8.2103     |   0.0 |  1.48
Comm    | 2.5868     | 2.5868     | 2.5868     |   0.0 |  0.47
Output  | 0.001491   | 0.001491   | 0.001491   |   0.0 |  0.00
Modify  | 22.084     | 22.084     | 22.084     |   0.0 |  3.97
Other   |            | 2.204      |            |       |  0.40

Nlocal:         374506 ave      374506 max      374506 min
Histogram: 1 0 0 0 0 0 0 0 0 0
Nghost:         110021 ave      110021 max      110021 min
Histogram: 1 0 0 0 0 0 0 0 0 0
Neighs:    6.61885e+07 ave 6.61885e+07 max 6.61885e+07 min
Histogram: 1 0 0 0 0 0 0 0 0 0

Total # of neighbors = 66188483
Ave neighs/atom = 176.73544
Neighbor list builds = 34
Dangerous builds = 0
unfix           npt_eq

# Stage 3: Tensile Loading (10,000 steps -> 10% strain)
reset_timestep  0
dump            d_tensile all custom 1000 sample_07_tensile.lammpstrj id type x y z
fix             deform_x all deform 1 x erate 0.01 remap x
fix             npt_tr all npt temp 300.0 300.0 0.1 y 0.0 0.0 1.0 z 0.0 0.0 1.0
run             10000
Last active /omp style is pair_style eam/alloy/omp
Per MPI rank memory allocation (min/avg/max) = 454.8 | 454.8 | 454.8 Mbytes
   Step          Temp          E_pair         E_mol          TotEng         Press          Volume    
         0   305.44723     -1283198.8      0             -1268412.6     -1837.6704      9527140.7    
     10000   300.75989     -1301288.3      0             -1286729       -1776.251       7526872.9    
Loop time of 4088.19 on 8 procs for 10000 steps with 374506 atoms

Performance: 0.211 ns/day, 113.561 hours/ns, 2.446 timesteps/s, 916.068 katom-step/s
708.1% CPU use with 1 MPI tasks x 8 OpenMP threads

MPI task timing breakdown:
Section |  min time  |  avg time  |  max time  |%varavg| %total
---------------------------------------------------------------
Pair    | 3798       | 3798       | 3798       |   0.0 | 92.90
Neigh   | 54.749     | 54.749     | 54.749     |   0.0 |  1.34
Comm    | 19.004     | 19.004     | 19.004     |   0.0 |  0.46
Output  | 6.508      | 6.508      | 6.508      |   0.0 |  0.16
Modify  | 194.03     | 194.03     | 194.03     |   0.0 |  4.75
Other   |            | 15.94      |            |       |  0.39

Nlocal:         374506 ave      374506 max      374506 min
Histogram: 1 0 0 0 0 0 0 0 0 0
Nghost:         135643 ave      135643 max      135643 min
Histogram: 1 0 0 0 0 0 0 0 0 0
Neighs:    7.37146e+07 ave 7.37146e+07 max 7.37146e+07 min
Histogram: 1 0 0 0 0 0 0 0 0 0

Total # of neighbors = 73714648
Ave neighs/atom = 196.83169
Neighbor list builds = 204
Dangerous builds = 0
Total wall time: 1:24:31
