LAMMPS (4 Jul 2026)
OMP_NUM_THREADS environment is not set. Defaulting to 1 thread.
  using 1 OpenMP thread(s) per MPI task
Loaded 1 plugins from C:\Users\mitra\AppData\Local\LAMMPS 64-bit 4Jul2026\plugins
package omp 8
set 8 OpenMP thread(s) per MPI task
using multi-threaded neighbor list subroutines
# Sample 06 Simulation Pipeline (250 grains, 170 A box)
units           metal
dimension       3
boundary        p p p
atom_style      atomic

read_data       ../data/sample_06_polycrystal.data
Reading data file ...
  orthogonal box = (0 0 0) to (170 170 170)
  1 by 1 by 1 MPI processor grid
  reading atoms ...
  173888 atoms
  read_data CPU = 0.802 seconds

pair_style      eam/alloy
pair_coeff      * * ../data/Al_zhou.eam.alloy Al Al Al Al Al Al Al Al Al Al Al Al Al Al Al Al Al Al Al Al Al Al Al Al Al Al Al Al Al Al Al Al Al Al Al Al Al Al Al Al Al Al Al Al Al Al Al Al Al Al Al Al Al Al Al Al Al Al Al Al Al Al Al Al Al Al Al Al Al Al Al Al Al Al Al Al Al Al Al Al Al Al Al Al Al Al Al Al Al Al Al Al Al Al Al Al Al Al Al Al Al Al Al Al Al Al Al Al Al Al Al Al Al Al Al Al Al Al Al Al Al Al Al Al Al Al Al Al Al Al Al Al Al Al Al Al Al Al Al Al Al Al Al Al Al Al Al Al Al Al Al Al Al Al Al Al Al Al Al Al Al Al Al Al Al Al Al Al Al Al Al Al Al Al Al Al Al Al Al Al Al Al Al Al Al Al Al Al Al Al Al Al Al Al Al Al Al Al Al Al Al Al Al Al Al Al Al Al Al Al Al Al Al Al Al Al Al Al Al Al Al Al Al Al Al Al Al Al Al Al Al Al Al Al Al Al Al Al Al Al Al Al Al Al Al Al Al Al Al Al
Reading eam/alloy potential file ../data/Al_zhou.eam.alloy with DATE: 2007-10-12

neighbor        2.0 bin
neigh_modify    every 1 delay 5 check yes

# Stage 1: Energy Minimization
minimize        1.0e-15 1.0e-15 1000 10000
Switching to 'neigh_modify every 1 delay 0 check yes' setting during minimization
Last active /omp style is pair_style eam/alloy/omp
Neighbor list info ...
  update: every = 1 steps, delay = 0 steps, check = yes
  max neighbors/atom: 2000, page size: 100000
  master list distance cutoff = 12.1025
  ghost atom cutoff = 12.1025
  binsize = 6.05125, bins = 29 29 29
  1 neighbor lists, perpetual/occasional/extra = 1 0 0
  (1) pair eam/alloy/omp, perpetual
      attributes: half, newton on, omp
      pair build: half/bin/atomonly/newton/omp
      stencil: half/bin/3d
      bin: standard
WARNING: A per-atom density exceeded rhomax of EAM potential table - a linear extrapolation to the energy was made (src/OPENMP/pair_eam_omp.cpp:101)
Per MPI rank memory allocation (min/avg/max) = 222.8 | 222.8 | 222.8 Mbytes
   Step          Temp          E_pair         E_mol          TotEng         Press     
         0   0             -580905.39      0             -580905.39     -8346.7054    
      1000   0             -599863.32      0             -599863.32     -5535.9092    
Loop time of 271.578 on 8 procs for 1000 steps with 173888 atoms

493.2% CPU use with 1 MPI tasks x 8 OpenMP threads

Minimization stats:
  Stopping criterion = max iterations
  Energy initial, next-to-last, final = 
     -580905.385094811  -599861.279269567   -599863.32348919
  Force two-norm initial, final = 1014.4367 2.6701318
  Force max component initial, final = 329.83683 0.65785365
  Final line search alpha, max atom move = 0.2932096 0.19288901
  Iterations, force evaluations = 1000 1000

MPI task timing breakdown:
Section |  min time  |  avg time  |  max time  |%varavg| %total
---------------------------------------------------------------
Pair    | 252.58     | 252.58     | 252.58     |   0.0 | 93.00
Neigh   | 8.8784     | 8.8784     | 8.8784     |   0.0 |  3.27
Comm    | 0.93367    | 0.93367    | 0.93367    |   0.0 |  0.34
Output  | 0.001524   | 0.001524   | 0.001524   |   0.0 |  0.00
Modify  | 2.4904     | 2.4904     | 2.4904     |   0.0 |  0.92
Other   |            | 6.694      |            |       |  2.46

Nlocal:         173888 ave      173888 max      173888 min
Histogram: 1 0 0 0 0 0 0 0 0 0
Nghost:          62646 ave       62646 max       62646 min
Histogram: 1 0 0 0 0 0 0 0 0 0
Neighs:    2.93619e+07 ave 2.93619e+07 max 2.93619e+07 min
Histogram: 1 0 0 0 0 0 0 0 0 0

Total # of neighbors = 29361878
Ave neighs/atom = 168.85511
Neighbor list builds = 61
Dangerous builds = 0

# Stage 2: NPT Equilibration
reset_timestep  0
timestep        0.001
velocity        all create 300.0 106 mom yes rot yes dist gaussian
fix             npt_eq all npt temp 300.0 300.0 0.1 iso 0.0 0.0 1.0
run             1500
Last active /omp style is pair_style eam/alloy/omp
Per MPI rank memory allocation (min/avg/max) = 214 | 214 | 214 Mbytes
   Step          Temp          E_pair         E_mol          TotEng         Press          Volume    
         0   300           -599863.32      0             -593120.33     -4069.9383      4913000      
      1500   303.22562     -595664.9       0             -588849.4      -1592.8037      4316360.1    
Loop time of 940.816 on 8 procs for 1500 steps with 173888 atoms

Performance: 0.138 ns/day, 174.225 hours/ns, 1.594 timesteps/s, 277.240 katom-step/s
309.7% CPU use with 1 MPI tasks x 8 OpenMP threads

MPI task timing breakdown:
Section |  min time  |  avg time  |  max time  |%varavg| %total
---------------------------------------------------------------
Pair    | 900.07     | 900.07     | 900.07     |   0.0 | 95.67
Neigh   | 11.691     | 11.691     | 11.691     |   0.0 |  1.24
Comm    | 2.5588     | 2.5588     | 2.5588     |   0.0 |  0.27
Output  | 0.001288   | 0.001288   | 0.001288   |   0.0 |  0.00
Modify  | 24.705     | 24.705     | 24.705     |   0.0 |  2.63
Other   |            | 1.789      |            |       |  0.19

Nlocal:         173888 ave      173888 max      173888 min
Histogram: 1 0 0 0 0 0 0 0 0 0
Nghost:          68402 ave       68402 max       68402 min
Histogram: 1 0 0 0 0 0 0 0 0 0
Neighs:     3.0805e+07 ave  3.0805e+07 max  3.0805e+07 min
Histogram: 1 0 0 0 0 0 0 0 0 0

Total # of neighbors = 30804971
Ave neighs/atom = 177.15409
Neighbor list builds = 33
Dangerous builds = 0
unfix           npt_eq

# Stage 3: Tensile Loading (10,000 steps -> 10% strain)
reset_timestep  0
dump            d_tensile all custom 1000 sample_06_tensile.lammpstrj id type x y z
fix             deform_x all deform 1 x erate 0.01 remap x
fix             npt_tr all npt temp 300.0 300.0 0.1 y 0.0 0.0 1.0 z 0.0 0.0 1.0
run             10000
Last active /omp style is pair_style eam/alloy/omp
Per MPI rank memory allocation (min/avg/max) = 219.3 | 219.3 | 219.3 Mbytes
   Step          Temp          E_pair         E_mol          TotEng         Press          Volume    
         0   303.22562     -595664.9       0             -588849.4      -1592.8037      4316360.1    
     10000   301.19346     -604925.38      0             -598155.56     -1562.6318      3347136.6    
Loop time of 4705.89 on 8 procs for 10000 steps with 173888 atoms

Performance: 0.184 ns/day, 130.719 hours/ns, 2.125 timesteps/s, 369.511 katom-step/s
392.9% CPU use with 1 MPI tasks x 8 OpenMP threads

MPI task timing breakdown:
Section |  min time  |  avg time  |  max time  |%varavg| %total
---------------------------------------------------------------
Pair    | 4464.5     | 4464.5     | 4464.5     |   0.0 | 94.87
Neigh   | 56.961     | 56.961     | 56.961     |   0.0 |  1.21
Comm    | 15.251     | 15.251     | 15.251     |   0.0 |  0.32
Output  | 4.6058     | 4.6058     | 4.6058     |   0.0 |  0.10
Modify  | 155.04     | 155.04     | 155.04     |   0.0 |  3.29
Other   |            | 9.505      |            |       |  0.20

Nlocal:         173888 ave      173888 max      173888 min
Histogram: 1 0 0 0 0 0 0 0 0 0
Nghost:          89989 ave       89989 max       89989 min
Histogram: 1 0 0 0 0 0 0 0 0 0
Neighs:    3.46308e+07 ave 3.46308e+07 max 3.46308e+07 min
Histogram: 1 0 0 0 0 0 0 0 0 0

Total # of neighbors = 34630778
Ave neighs/atom = 199.15565
Neighbor list builds = 195
Dangerous builds = 0
Total wall time: 1:38:42
